1024 21504
0 1 32 992 31 1023 33 993 63 64 30 2 960 961 1022 991 62 994 95 65 34
1 993 2 33 0 994 992 32 34 961 3 31 65 995 35 962 66 1023 960 64 63
2 1 3 34 994 35 33 993 995 0 962 66 4 992 961 65 67 963 32 36 996
3 4 2 995 35 996 36 994 34 1 5 963 67 997 962 964 66 993 33 68 37
4 996 5 3 36 997 37 995 35 6 68 964 2 965 34 963 998 38 994 67 69
5 997 37 6 4 996 36 38 998 3 965 69 7 68 966 70 964 995 35 39 999
6 5 7 38 998 999 37 997 39 70 966 8 4 965 996 40 69 36 967 71 1000
7 6 8 999 39 1000 998 38 40 967 71 5 9 997 41 966 1001 70 37 72 968
8 9 7 40 1000 1001 41 39 999 10 968 72 6 998 967 38 73 969 71 42 1002
9 10 8 41 1001 1002 40 42 1000 969 7 73 11 970 968 72 1003 999 39 74 43
10 9 11 42 1002 1001 41 43 1003 74 12 8 970 969 1000 1004 44 971 75 40 73
11 10 43 12 1003 1004 1002 42 44 13 9 971 75 1001 76 970 74 41 972 45 1005
12 13 44 11 1004 1003 43 1005 45 10 76 972 14 1006 973 1002 46 75 42 77 971
13 1005 12 14 45 44 1004 1006 46 973 15 11 77 972 47 1003 78 1007 974 76 43
14 13 1006 15 46 1007 1005 47 45 974 16 12 78 77 1004 1008 973 48 44 79 975
15 14 1007 47 16 1008 1006 46 48 975 79 17 13 1009 1005 976 974 45 78 80 49
16 1008 48 15 17 1007 47 1009 49 18 976 80 14 1006 977 975 1010 79 46 50 81
17 18 1009 49 16 50 1010 48 1008 81 977 15 19 978 80 1011 82 47 1007 51 976
18 17 19 1010 50 1011 51 49 1009 978 82 16 20 979 977 1012 1008 52 83 81 48
19 20 51 1011 18 1010 50 1012 52 83 979 21 17 978 84 1009 980 82 49 53 1013
20 19 1012 21 52 1011 53 1013 51 980 22 84 18 979 83 1014 1010 54 981 50 85
21 1013 53 22 20 54 1014 1012 52 981 23 85 19 1015 980 982 84 51 1011 86 55
22 21 54 1014 23 1015 1013 55 53 982 86 20 24 1012 983 56 87 1016 981 52 85
23 1015 24 22 55 1014 54 56 1016 87 25 21 983 984 88 86 53 982 1013 57 1017
24 25 56 23 1016 1015 55 1017 57 984 22 26 88 985 1018 983 1014 54 87 89 58
25 1017 24 26 57 1016 1018 56 58 985 23 27 89 1015 984 1019 59 88 55 986 90
26 27 58 25 1018 1017 1019 59 57 90 28 24 986 1016 91 1020 985 60 56 89 987
27 26 28 1019 59 1018 1020 60 58 25 987 29 91 1021 1017 988 986 90 57 92 61
28 29 1020 27 60 1019 61 1021 59 92 30 26 988 989 987 1018 93 91 58 1022 62
29 30 28 61 1021 62 1020 60 1022 989 31 27 93 1019 94 990 988 59 92 63 1023
30 1022 29 31 62 63 1021 61 1023 94 0 28 990 991 1020 989 32 93 60 95 992
31 63 0 30 1023 1022 32 62 992 1 991 29 95 1021 990 993 61 94 960 33 64
32 63 33 64 0 31 95 65 1 34 992 62 96 97 30 993 94 1023 127 2 66
33 65 32 1 34 64 0 2 66 63 97 993 35 95 992 994 3 98 96 31 67
34 66 33 35 2 65 1 67 3 98 32 994 36 64 97 993 99 0 995 4 68
35 67 34 3 36 68 4 2 66 37 33 99 995 1 98 65 69 100 994 5 996
36 37 4 35 68 67 5 69 3 38 34 996 100 997 101 6 66 2 995 70 99
37 5 36 38 69 70 68 6 4 997 101 35 39 996 3 998 67 100 102 7 71
38 6 70 39 37 69 5 71 7 40 102 36 998 997 72 103 68 4 101 8 999
39 40 38 71 7 8 72 6 70 41 37 103 999 102 73 69 104 5 998 9 1000
40 72 8 41 39 73 7 9 71 104 38 1000 42 1001 999 105 70 6 103 10 74
41 73 40 9 42 72 10 74 8 1001 39 43 105 106 11 1000 7 104 71 1002 75
42 43 41 74 10 75 73 9 11 106 40 44 1002 72 107 1001 105 12 1003 76 8
43 11 44 75 42 10 74 76 12 1003 45 107 41 108 1004 73 9 106 1002 13 77
44 45 12 76 43 75 11 13 77 1004 108 42 46 10 109 107 14 1005 1003 74 78
45 46 13 77 44 76 78 14 12 1005 43 109 47 75 79 15 108 110 1006 11 1004
46 47 45 14 78 13 15 77 79 1006 44 110 48 109 76 12 1005 1007 111 16 80
47 48 46 15 79 80 14 78 16 45 49 1007 111 1006 77 1008 81 13 110 112 17
48 16 49 47 80 79 17 81 15 50 46 112 1008 78 82 18 113 1009 111 14 1007
49 48 50 17 81 80 16 18 82 47 1009 113 51 1008 112 1010 79 15 114 19 83
50 18 82 49 51 81 19 83 17 52 48 1010 114 115 84 1009 113 1011 80 16 20
51 19 52 50 83 20 18 84 82 115 49 53 1011 85 81 116 1010 17 21 1012 114
52 84 51 53 20 85 83 21 19 116 1012 50 54 117 1011 1013 82 18 115 22 86
53 85 54 52 21 84 22 20 86 117 55 1013 51 87 1012 116 23 118 83 19 1014
54 86 53 22 55 85 87 21 23 118 56 1014 52 84 88 1013 119 24 1015 117 20
55 87 54 23 56 86 88 24 22 1015 53 119 57 1016 1014 85 120 21 118 25 89
56 55 57 88 24 25 87 23 89 1016 120 54 58 1015 86 90 121 22 119 26 1017
57 56 89 58 25 90 88 24 26 121 55 59 1017 87 23 27 1018 120 122 91 1016
58 59 90 57 26 89 25 27 91 56 1018 60 122 1019 123 88 24 1017 121 28 92
59 60 27 58 91 92 90 26 28 61 1019 123 57 1018 89 25 124 122 93 1020 29
60 59 61 28 92 29 93 27 91 62 58 1020 124 90 1021 94 123 125 30 1019 26
61 62 93 29 60 92 30 28 94 59 1021 125 63 1020 126 1022 91 27 124 31 95
62 61 94 30 63 29 31 95 93 32 1022 126 60 1021 92 125 127 64 28 1023 0
63 62 32 31 95 94 0 64 30 61 1023 127 33 96 65 93 1022 992 1 126 29
64 95 96 65 32 97 33 127 63 94 0 128 66 34 62 1 31 126 98 129 159
65 66 97 64 33 98 32 34 96 95 1 129 67 35 0 63 2 127 99 128 130
66 65 98 67 34 97 35 33 99 68 64 130 2 1 36 100 3 32 96 131 129
67 66 99 35 68 98 36 100 34 69 65 3 131 101 97 33 4 2 37 132 130
68 69 36 67 100 37 35 99 101 4 70 66 132 34 38 5 3 98 102 131 133
69 70 68 101 37 38 102 36 100 5 133 67 71 35 6 39 132 103 99 134 4
70 102 69 71 38 101 103 39 37 6 72 134 68 104 7 5 100 40 36 135 133
71 103 72 39 70 40 104 38 102 69 73 7 135 101 6 37 41 8 105 134 136
72 73 71 104 40 105 39 103 41 136 8 74 70 102 137 9 135 7 38 106 42
73 41 74 105 72 40 104 42 106 75 137 71 9 43 103 10 8 39 107 138 136
74 42 75 106 73 107 43 105 41 72 138 76 10 104 9 108 11 44 40 137 139
75 74 43 76 107 44 106 108 42 73 77 11 139 41 45 12 109 105 10 140 138
76 75 44 77 108 109 45 107 43 78 12 140 74 42 46 13 11 110 106 141 139
77 109 76 78 45 46 44 110 108 75 13 141 79 43 111 12 14 107 47 140 142
78 110 77 46 79 109 111 45 47 76 80 14 142 48 13 112 15 44 108 141 143
79 80 47 78 111 110 48 112 46 77 81 143 15 113 109 45 142 16 14 144 49
80 112 48 81 79 47 111 49 113 82 78 144 16 17 46 145 15 50 110 143 114
81 113 82 49 80 48 50 112 114 83 79 17 145 47 115 51 111 18 16 146 144
82 114 50 83 81 113 115 51 49 18 84 80 146 116 48 17 19 52 112 147 145
83 84 115 82 51 116 52 114 50 85 81 19 147 113 117 20 18 53 49 146 148
84 85 116 52 83 117 115 51 53 20 148 86 82 50 147 21 149 114 19 118 54
85 117 86 53 84 116 54 52 118 87 21 83 149 55 119 20 22 51 115 150 148
86 54 85 87 118 53 55 117 119 84 88 22 150 116 120 56 21 23 52 149 151
87 88 55 86 119 56 120 118 54 85 89 23 151 53 57 121 24 117 22 150 152
88 120 87 56 89 55 57 121 119 86 90 24 152 54 58 151 25 23 122 153 118
89 57 90 121 88 56 120 58 122 87 91 25 153 119 55 123 24 59 26 152 154
90 91 122 89 58 59 123 57 121 92 26 88 154 60 124 27 25 120 56 155 153
91 123 90 59 92 58 60 124 122 93 89 27 155 57 121 28 26 125 61 156 154
92 91 93 60 124 59 123 125 61 28 94 90 156 58 27 29 122 62 126 155 157
93 94 92 125 61 62 126 60 124 29 91 95 157 59 63 158 127 28 123 156 30
94 126 93 62 95 61 127 63 125 92 64 30 158 60 124 29 31 96 32 159 157
95 94 63 64 127 62 126 96 32 65 93 31 159 97 61 0 30 125 33 158 128
96 127 97 128 64 159 65 129 95 160 32 126 98 94 158 161 191 33 63 130 66
97 96 98 65 129 64 128 130 66 33 161 99 127 95 160 32 34 67 162 159 131
98 66 130 97 99 65 129 131 67 34 162 100 96 33 128 64 35 163 161 132 68
99 67 131 98 100 68 130 132 66 101 97 35 163 65 69 36 164 34 162 129 133
100 99 132 101 68 133 131 67 69 102 36 98 164 35 37 66 134 70 165 163 130
101 133 69 102 100 134 132 68 70 37 99 103 165 38 71 131 164 166 67 135 36
102 70 134 103 101 69 133 135 71 38 166 100 104 165 132 167 72 39 37 136 68
103 71 135 104 102 136 134 70 72 101 167 39 105 40 69 73 166 168 38 137 133
104 103 105 72 136 73 135 71 137 168 40 102 106 169 167 134 70 39 41 138 74
105 137 104 106 73 138 74 72 136 169 103 41 107 168 40 135 139 71 42 170 75
106 105 107 138 74 73 75 139 137 104 170 42 108 41 72 43 76 171 140 136 169
107 139 106 75 108 138 76 74 140 105 43 109 171 170 42 137 73 172 44 141 77
108 76 140 109 107 77 139 141 75 110 106 172 44 78 43 173 138 45 171 142 74
109 108 77 141 110 76 78 140 142 173 111 45 107 75 46 44 143 79 174 172 139
110 111 142 78 109 77 143 141 79 46 108 174 112 175 47 45 80 140 173 144 76
111 79 143 112 110 80 78 144 142 47 109 113 175 77 81 145 48 176 141 46 174
112 111 80 144 113 81 79 143 145 176 110 114 48 78 82 47 146 175 142 49 177
113 145 81 112 114 82 146 144 80 115 111 177 49 176 79 50 143 48 178 147 83
114 113 146 115 82 83 147 145 81 50 116 178 112 80 177 179 49 84 51 144 148
115 147 83 116 114 148 84 82 146 117 179 113 51 50 81 85 52 178 145 180 149
116 148 117 115 84 149 85 83 147 180 114 118 52 181 179 86 146 51 53 150 82
117 149 85 116 118 148 150 84 86 181 115 53 119 180 182 83 54 147 52 87 151
118 150 119 86 117 85 149 151 87 116 54 182 120 53 84 88 55 181 148 152 183
119 118 87 120 151 86 88 152 150 55 183 121 117 54 89 149 56 182 184 153 85
120 88 119 121 152 153 151 89 87 56 184 118 122 86 150 55 185 90 57 154 183
121 153 120 122 89 88 154 152 90 119 57 123 185 87 91 151 56 184 155 58 186
122 123 121 90 154 91 153 89 155 186 58 120 124 185 187 59 92 152 57 156 88
123 155 122 124 91 154 156 90 92 187 59 121 125 93 188 89 153 58 186 60 157
124 156 123 125 92 157 91 155 93 60 122 126 188 94 59 61 187 90 189 158 154
125 124 126 93 157 158 92 94 156 61 189 123 127 91 62 95 60 155 188 159 190
126 158 94 127 125 93 157 95 159 124 62 190 96 189 156 191 92 61 63 128 64
127 95 159 126 96 94 128 158 64 63 125 97 191 32 93 62 65 190 160 129 157
128 129 160 96 159 161 97 127 191 64 192 130 158 223 95 193 190 162 126 98 65
129 97 130 161 128 162 96 98 160 193 131 159 65 66 194 192 191 99 163 127 64
130 98 131 162 129 161 97 99 163 194 66 128 132 65 195 193 160 96 67 100 164
131 132 99 163 130 98 100 162 164 133 129 195 67 194 97 161 68 66 165 196 101
132 164 133 131 100 165 99 101 163 130 68 196 134 102 166 98 162 69 197 195 67
133 132 165 134 101 102 166 100 164 69 131 197 135 68 196 99 198 70 163 103 167
134 166 133 135 102 165 167 103 101 198 132 136 70 69 104 164 168 197 199 100 71
135 136 167 103 134 168 166 104 102 133 137 199 71 72 101 105 169 198 200 70 165
136 104 135 137 168 167 105 169 103 134 72 200 138 73 201 102 166 71 199 170 106
137 136 169 138 105 170 168 104 106 73 139 201 135 167 72 200 171 103 202 74 107
138 139 170 137 106 105 171 169 107 202 74 140 136 75 172 203 201 168 108 73 104
139 138 140 171 107 106 170 108 172 75 203 137 141 76 74 204 202 105 169 109 173
140 139 172 141 108 109 173 171 107 76 138 204 142 75 203 170 205 106 174 110 77
141 140 142 109 173 174 172 110 108 143 139 205 77 78 76 175 204 171 111 206 107
142 143 110 141 174 109 175 173 111 78 140 206 144 79 172 207 205 108 77 112 176
143 111 175 142 144 176 174 110 112 79 145 207 141 109 78 173 177 208 206 80 113
144 143 112 145 176 175 111 177 113 146 142 80 208 81 209 79 114 207 174 178 110
145 144 146 113 177 176 112 114 178 81 209 143 147 80 175 210 208 111 82 115 179
146 114 147 145 178 113 177 179 115 148 144 210 82 209 81 176 211 180 112 83 116
147 179 148 115 146 178 116 114 180 211 83 149 145 181 212 84 113 210 177 117 82
148 180 147 116 149 181 115 179 117 84 146 150 212 85 178 114 213 83 211 118 182
149 181 150 117 148 116 118 182 180 85 147 213 151 84 115 212 214 183 179 119 86
150 151 118 182 149 119 183 181 117 214 152 148 86 87 116 215 213 180 120 184 85
151 183 150 152 119 118 120 184 182 149 215 87 153 88 216 181 117 86 214 121 185
152 120 153 151 184 183 119 185 121 88 150 216 154 87 215 182 186 217 118 122 89
153 185 121 154 152 120 122 184 186 151 155 89 217 119 90 216 218 183 123 187 88
154 153 155 186 122 123 187 185 121 152 90 218 156 91 89 219 184 120 217 124 188
155 154 123 187 156 186 188 122 124 157 153 91 219 92 90 218 220 121 185 125 189
156 188 157 124 155 187 123 125 189 154 220 92 158 186 221 91 126 219 190 122 93
157 189 156 125 158 190 188 126 124 93 155 221 159 94 92 220 187 123 222 127 191
158 157 159 126 190 191 189 125 127 222 94 128 156 93 188 96 221 160 124 223 95
159 128 158 127 191 96 126 190 160 157 223 129 95 97 64 94 192 125 189 222 161
160 128 192 161 191 129 159 193 223 162 224 96 190 97 222 130 158 127 194 225 255
161 193 162 129 160 128 194 130 192 191 97 225 163 159 96 195 98 223 131 226 224
162 161 194 163 130 131 193 129 195 160 226 164 98 97 225 192 227 99 128 196 132
163 131 195 162 164 132 196 130 194 165 99 227 161 193 133 100 98 129 197 228 226
164 163 165 132 196 133 131 195 197 100 162 166 228 194 130 198 101 99 134 227 229
165 197 164 166 133 198 134 132 196 101 167 163 229 102 131 199 228 135 195 230 100
166 165 167 134 198 133 199 197 135 102 168 164 230 101 132 196 103 200 136 231 229
167 199 166 135 168 134 200 198 136 165 103 231 169 133 102 201 197 137 104 232 230
168 136 167 169 200 199 135 201 137 232 104 166 170 231 198 233 103 105 134 202 138
169 170 201 137 168 136 138 200 202 167 171 105 233 203 139 104 106 135 199 234 232
170 169 138 171 202 203 139 201 137 168 172 106 234 204 107 105 136 200 140 233 235
171 139 172 203 170 202 138 140 204 173 169 235 107 137 205 201 141 106 108 236 234
172 204 171 173 140 205 139 203 141 174 170 236 108 202 109 142 138 107 206 237 235
173 141 205 172 174 140 206 204 142 109 175 171 237 139 203 207 108 110 143 238 236
174 206 175 142 173 141 205 143 207 238 172 176 110 109 237 204 239 140 111 208 144
175 143 207 176 174 208 144 206 142 177 239 111 173 209 141 238 112 205 145 240 110
176 144 177 175 208 143 209 207 145 240 178 112 174 142 146 210 241 111 206 239 113
177 209 178 145 176 208 146 144 210 179 175 241 113 143 211 112 147 207 114 240 242
178 146 210 179 177 209 147 145 211 180 176 114 242 113 208 148 115 144 212 243 241
179 211 180 178 147 148 210 212 146 181 177 115 243 209 213 145 116 114 149 244 242
180 181 212 148 179 149 211 213 147 244 116 182 178 243 245 210 115 146 117 214 150
181 182 180 149 213 148 214 212 150 179 245 183 117 151 116 147 211 246 118 215 244
182 183 181 150 214 149 215 213 151 180 246 184 118 148 212 216 117 119 152 245 247
183 215 151 184 182 214 150 152 216 185 119 247 181 149 153 217 213 120 118 246 248
184 185 216 183 152 151 215 153 217 182 120 186 248 119 214 121 150 154 218 249 247
185 186 184 217 153 152 154 216 218 121 187 183 249 215 151 122 120 155 219 250 248
186 187 218 185 154 155 153 217 219 122 188 184 250 152 216 249 156 251 121 220 123
187 186 219 155 188 154 218 220 156 123 189 251 185 153 122 124 221 217 157 252 250
188 189 220 156 187 157 219 221 155 124 186 252 190 154 218 125 123 158 222 251 253
189 188 221 190 157 220 156 158 222 191 187 253 125 124 223 159 126 219 155 254 252
190 191 158 222 189 223 157 159 221 160 188 126 254 128 220 192 127 156 125 255 253
191 160 190 159 223 158 128 192 222 189 127 161 255 157 126 96 129 221 193 224 254
192 223 224 160 193 225 161 255 191 194 128 222 256 287 129 159 162 190 254 257 226
193 192 194 225 161 224 162 160 226 257 195 129 223 128 191 130 258 163 227 256 255
194 195 162 226 193 227 161 225 163 130 258 192 196 160 164 129 259 224 257 228 131
195 194 163 196 227 228 164 226 162 193 131 197 259 165 130 132 161 258 225 260 229
196 197 164 228 195 165 229 227 163 132 194 260 198 131 133 226 162 259 166 230 261
197 165 229 198 196 166 164 228 230 199 261 133 195 260 134 262 132 163 227 231 167
198 199 166 197 230 229 167 231 165 134 262 200 196 168 133 261 135 228 164 232 263
199 198 231 167 200 168 232 230 166 135 201 197 263 165 134 136 233 229 264 169 262
200 168 199 201 232 167 233 231 169 136 264 198 202 137 170 166 263 265 135 234 230
201 233 200 202 169 170 168 232 234 203 199 137 265 136 167 264 138 231 171 266 235
202 203 201 170 234 169 235 171 233 138 266 200 204 168 137 172 139 232 265 236 267
203 204 171 235 202 236 170 234 172 139 201 267 205 169 173 138 140 233 266 237 268
204 236 172 203 205 237 171 173 235 202 140 268 206 139 141 170 234 174 267 269 238
205 206 173 204 237 238 236 172 174 269 203 141 207 175 235 140 142 239 171 270 268
206 238 207 205 174 239 175 237 173 142 204 270 208 143 271 141 236 269 172 240 176
207 175 206 208 239 174 238 176 240 209 143 271 205 177 144 270 173 237 142 272 241
208 176 207 209 240 241 239 175 177 206 210 144 272 143 145 242 178 174 273 271 238
209 241 177 210 208 176 240 242 178 273 207 145 211 175 179 146 274 239 144 243 272
210 209 242 178 211 241 179 177 243 274 208 212 146 180 273 176 240 147 145 275 244
211 212 243 179 210 180 244 178 242 147 209 275 213 181 146 177 148 274 241 245 276
212 180 244 211 213 179 181 243 245 148 214 210 276 277 147 242 182 246 178 275 149
213 181 214 245 212 246 182 244 180 215 277 211 149 150 148 179 276 183 243 278 247
214 213 182 215 246 181 183 247 245 150 212 216 278 149 180 244 248 151 184 277 279
215 183 214 247 216 182 248 246 184 151 217 213 279 181 280 185 150 249 245 152 278
216 215 248 184 217 249 185 247 183 280 214 152 218 186 151 153 182 246 279 281 250
217 249 216 185 218 250 186 248 184 215 153 219 281 154 152 187 183 282 251 280 247
218 186 217 219 250 187 249 185 251 154 282 216 220 155 248 188 281 283 184 252 153
219 218 220 251 187 250 186 188 252 155 217 221 283 189 156 154 185 282 249 284 253
220 221 252 188 219 251 187 253 189 218 222 156 284 157 186 190 285 155 254 283 250
221 220 253 222 189 252 190 188 254 157 285 219 223 286 187 156 284 158 251 255 191
222 254 223 190 221 189 255 191 253 192 158 286 220 160 159 157 252 188 285 287 224
223 191 192 222 255 160 190 254 224 159 193 221 287 189 158 128 253 256 161 286 225
224 255 256 192 225 257 193 223 287 226 160 288 254 319 161 191 289 258 222 286 194
225 257 224 193 226 256 194 192 258 289 255 227 161 160 195 259 162 288 287 290 223
226 225 194 227 258 259 193 257 195 162 224 290 228 256 289 161 291 192 163 196 260
227 228 259 195 226 258 194 260 196 229 225 291 163 292 164 162 261 257 193 290 197
228 227 260 229 196 259 195 197 261 230 164 292 226 258 262 293 198 163 194 291 165
229 228 230 261 197 262 196 260 198 227 165 293 231 292 166 164 259 195 294 199 263
230 231 262 198 229 199 263 261 197 228 166 294 232 165 295 260 264 293 196 200 167
231 230 263 232 199 262 200 264 198 167 233 295 229 265 296 166 201 168 294 197 261
232 200 233 231 264 265 199 201 263 296 230 168 234 297 169 167 262 198 295 202 266
233 265 234 232 201 266 202 200 264 297 169 235 231 168 296 203 199 267 298 263 170
234 235 202 233 266 265 267 201 203 170 298 232 236 169 268 204 171 264 299 297 200
235 267 236 234 203 202 268 204 266 233 299 237 171 170 298 300 265 201 172 205 269
236 268 237 204 235 267 205 269 203 238 300 172 234 202 266 173 299 206 301 270 171
237 205 269 238 236 270 268 206 204 235 173 301 239 302 267 174 203 207 300 271 172
238 206 239 237 270 205 269 271 207 236 302 174 240 175 268 173 303 204 301 208 272
239 238 271 207 240 272 206 208 270 175 241 303 237 205 302 269 304 273 174 176 209
240 239 272 241 208 207 273 209 271 304 238 242 176 270 305 210 303 274 177 175 206
241 240 273 209 242 272 210 208 274 177 305 239 243 176 271 306 304 207 178 211 275
242 243 241 210 274 209 273 211 275 244 240 178 306 305 177 272 212 307 276 208 179
243 242 244 211 275 274 212 210 276 241 307 179 245 273 180 308 277 209 213 306 178
244 276 243 212 245 275 277 213 211 180 242 308 246 181 307 274 179 210 309 214 278
245 246 277 213 244 212 214 276 278 243 181 309 247 310 180 275 182 308 279 211 215
246 214 247 245 278 277 279 215 213 248 244 310 182 280 276 212 216 311 183 309 181
247 246 248 279 215 280 216 278 214 245 311 183 249 310 182 277 213 184 312 217 281
248 249 247 216 280 215 281 279 217 250 312 184 246 311 218 183 278 282 214 313 185
249 248 281 250 217 218 282 280 216 251 247 185 313 283 279 215 219 186 312 314 184
250 282 249 218 251 283 281 219 217 186 248 314 252 185 187 280 315 216 313 220 284
251 250 283 252 219 284 282 218 220 253 187 315 249 314 186 188 316 285 217 221 281
252 251 253 220 284 285 283 221 219 250 316 188 254 282 317 218 222 189 315 286 187
253 254 221 285 252 222 286 284 220 189 317 251 255 318 188 283 219 190 316 223 287
254 255 222 286 253 285 287 221 223 224 190 318 252 189 317 284 319 256 220 191 192
255 224 254 287 223 222 286 192 256 319 253 191 225 257 160 318 285 288 193 190 221
256 224 257 288 287 255 319 225 289 258 320 286 192 254 193 223 290 226 318 321 351
257 289 256 225 258 224 288 226 290 193 259 321 287 319 255 194 192 227 291 320 322
258 257 290 259 226 225 289 291 227 256 194 322 260 195 228 321 193 288 224 292 323
259 291 258 260 227 292 228 290 226 257 323 195 261 293 225 322 196 289 229 324 194
260 292 259 261 228 229 293 291 227 258 262 196 324 197 226 294 195 290 230 323 325
261 262 260 293 229 230 228 294 292 263 197 325 259 227 198 196 295 291 231 324 326
262 261 294 263 230 295 229 293 231 198 264 260 326 228 296 292 197 199 232 327 325
263 262 295 231 264 230 296 294 232 265 327 199 261 200 293 297 198 326 328 229 233
264 265 296 232 263 231 295 233 297 262 266 328 200 234 298 201 199 294 230 329 327
265 297 266 264 233 298 296 232 234 267 263 329 201 231 235 202 295 200 299 330 328
266 298 265 234 267 233 299 297 235 202 268 264 330 296 300 201 236 232 203 329 331
267 268 235 266 299 236 298 300 234 265 203 269 331 202 233 237 332 301 297 204 330
268 267 300 269 236 235 237 301 299 270 204 266 332 298 238 203 205 302 234 333 331
269 270 237 268 301 238 300 236 302 205 267 333 271 303 235 206 204 299 239 332 334
270 302 238 271 269 237 239 303 301 272 268 334 206 304 240 207 300 205 236 333 335
271 239 270 303 272 304 238 240 302 273 207 269 335 241 334 208 237 301 305 336 206
272 304 240 271 273 305 239 303 241 270 208 274 336 238 209 207 242 302 306 335 337
273 241 305 272 274 304 242 240 306 271 275 337 209 243 208 307 210 303 239 338 336
274 275 242 273 306 305 241 243 307 276 210 272 338 308 240 304 209 211 244 339 337
275 307 243 276 274 308 242 306 244 211 273 339 277 241 245 309 210 212 305 338 340
276 275 308 244 277 243 245 307 309 278 212 340 274 310 246 211 213 306 242 339 341
277 309 276 278 245 310 246 244 308 279 275 341 213 311 247 340 214 212 243 342 307
278 279 310 246 277 245 247 309 311 280 276 342 214 308 244 215 213 312 248 341 343
279 311 278 247 280 248 310 312 246 277 281 215 343 249 245 313 216 309 214 344 342
280 279 312 248 281 247 249 313 311 282 216 344 278 314 250 343 217 246 310 345 215
281 313 282 280 249 314 248 312 250 217 279 283 345 311 247 315 216 218 251 344 346
282 281 283 250 314 249 251 315 313 284 218 346 280 217 252 316 219 312 248 345 347
283 251 282 315 284 316 314 252 250 219 281 347 285 317 249 220 253 218 313 348 346
284 285 252 316 283 317 251 315 253 282 220 286 348 314 250 318 221 219 254 347 349
285 317 284 286 253 254 316 252 318 221 287 349 283 255 220 319 222 315 251 348 350
286 287 318 254 285 317 253 319 255 256 222 350 284 252 221 223 224 288 316 351 349
287 255 286 256 319 224 254 318 288 223 351 285 257 317 253 222 289 225 192 350 320
288 289 320 256 319 287 351 257 321 352 224 290 318 350 255 383 353 286 225 322 258
289 257 321 288 290 256 322 320 258 225 319 353 291 259 351 224 323 354 287 226 352
290 291 289 258 322 259 323 257 321 288 292 354 226 225 353 320 256 355 227 324 260
291 323 259 290 292 260 258 322 324 293 227 289 355 257 325 228 226 354 261 321 356
292 260 324 293 291 261 325 323 259 228 290 294 356 258 227 262 229 326 355 322 357
293 294 325 292 261 262 324 326 260 295 229 357 291 358 230 323 228 259 356 327 263
294 293 295 326 262 325 327 263 261 230 358 292 296 357 359 260 229 231 324 328 264
295 296 263 327 294 262 264 326 328 359 293 231 297 265 232 325 329 360 261 230 358
296 328 295 264 297 265 327 329 263 360 298 232 294 231 266 326 233 359 361 330 262
297 298 296 329 265 266 330 264 328 299 295 233 361 267 234 331 263 360 232 362 327
298 299 266 330 297 267 265 331 329 296 300 234 362 235 233 268 328 363 332 361 264
299 267 298 300 331 268 330 266 332 235 301 297 363 265 236 329 269 333 364 234 362
300 332 301 268 299 331 269 333 267 236 298 302 364 363 330 365 266 237 235 334 270
301 302 269 300 333 270 334 332 268 365 237 299 303 238 267 335 271 364 331 366 236
302 270 334 303 301 335 333 271 269 366 238 300 304 367 365 272 332 237 239 336 268
303 304 302 271 335 334 272 270 336 367 301 305 239 273 238 337 240 269 366 333 368
304 303 336 305 272 271 273 335 337 306 368 302 240 270 241 367 239 334 369 274 338
305 306 304 273 337 338 336 272 274 241 303 307 369 271 242 335 368 370 240 339 275
306 274 338 307 305 275 337 273 339 304 370 242 308 336 369 241 371 276 243 340 272
307 275 308 306 339 340 276 274 338 243 371 305 309 273 244 370 242 341 277 372 337
308 309 340 307 276 275 341 277 339 244 310 372 306 373 245 243 278 338 371 342 274
309 308 310 277 341 276 340 278 342 245 311 307 373 279 275 246 339 244 372 374 343
310 278 311 309 342 277 343 341 279 308 246 374 312 280 276 245 247 373 340 344 375
311 310 279 343 312 280 344 342 278 247 313 375 309 277 341 281 248 345 376 374 246
312 313 311 344 280 343 279 281 345 310 314 376 248 247 377 342 375 282 249 346 278
313 345 314 312 281 280 346 344 282 311 249 377 315 283 347 279 250 376 343 248 378
314 315 313 346 282 283 281 347 345 312 250 378 316 379 377 344 280 249 251 348 284
315 283 314 316 347 348 284 282 346 317 379 313 251 250 252 281 378 285 345 349 380
316 315 284 348 317 285 347 283 349 314 318 380 252 282 253 251 286 350 381 346 379
317 318 285 316 349 284 348 286 350 253 315 381 319 382 254 347 252 380 283 351 287
318 350 319 286 317 349 351 287 285 382 254 316 288 381 348 383 253 255 256 320 284
319 288 351 287 318 256 286 320 350 317 289 383 255 224 254 257 352 321 285 349 382
320 288 321 351 352 319 353 383 289 350 256 384 322 382 257 415 354 385 318 290 287
321 353 322 320 289 354 290 352 288 385 257 351 323 258 386 355 256 384 383 291 319
322 323 354 321 290 289 353 355 291 386 320 258 324 385 257 288 387 259 352 292 356
323 291 355 324 322 292 356 290 354 325 321 387 259 258 386 289 353 260 293 357 388
324 323 325 292 356 293 357 355 291 322 388 260 326 387 358 261 294 354 389 290 259
325 357 324 326 293 356 292 294 358 323 389 327 261 262 260 390 355 291 388 295 359
326 327 358 294 325 357 295 359 293 324 262 328 390 356 292 391 389 360 261 263 296
327 295 359 326 328 296 294 358 360 263 329 325 391 361 293 357 390 264 297 392 262
328 329 327 360 296 361 359 295 297 326 264 330 392 265 263 391 294 393 358 298 362
329 328 330 297 361 296 362 360 298 265 393 327 331 363 266 295 359 394 264 299 392
330 329 331 362 298 297 361 299 363 328 394 266 332 393 360 267 300 395 364 296 265
331 332 363 299 330 362 300 364 298 267 395 329 333 266 268 396 297 361 394 301 365
332 333 364 300 331 301 365 299 363 268 334 330 396 298 362 395 267 269 366 397 302
333 365 334 301 332 366 300 302 364 331 269 397 335 270 268 367 396 363 303 398 299
334 302 333 366 335 365 367 303 301 270 336 332 398 271 269 364 399 304 397 300 368
335 367 336 303 334 366 368 302 304 271 399 337 333 270 365 272 398 305 400 369 301
336 368 304 335 337 369 303 305 367 338 272 334 400 366 401 273 370 271 306 399 302
337 338 336 305 369 304 306 368 370 273 335 339 401 272 402 400 303 274 367 307 371
338 337 306 370 339 369 371 305 307 340 402 274 336 304 273 401 368 308 372 403 275
339 371 340 307 338 308 370 306 372 337 341 403 275 276 305 373 402 369 309 404 274
340 341 372 339 308 373 309 371 307 338 276 342 404 277 405 403 306 370 275 310 374
341 309 373 342 340 308 374 372 310 277 405 339 343 276 371 311 406 375 307 278 404
342 310 374 343 341 311 375 309 373 344 340 278 406 376 277 312 407 279 405 372 308
343 375 342 344 311 376 374 312 310 279 345 407 341 373 408 406 309 280 278 313 377
344 312 376 345 343 375 377 311 313 408 280 342 346 310 279 374 407 281 378 409 314
345 344 313 346 377 378 314 376 312 409 343 281 347 282 379 410 311 408 375 315 280
346 314 347 378 345 379 313 315 377 282 410 344 348 281 411 312 376 283 409 316 380
347 348 346 315 379 378 316 314 380 411 345 349 283 282 410 377 381 313 412 284 317
348 316 347 380 349 379 381 315 317 350 284 412 346 285 382 314 318 411 413 378 283
349 317 350 381 348 316 318 380 382 347 413 351 285 286 412 414 315 379 284 319 383
350 318 351 382 349 317 383 319 381 320 286 348 414 316 380 415 352 285 413 288 287
351 319 320 383 350 382 352 318 288 321 415 287 349 256 384 286 353 381 289 414 317
352 320 384 383 353 321 351 385 415 382 354 288 416 319 414 350 386 289 322 417 447
353 321 352 354 385 320 386 384 322 289 383 417 355 351 290 288 415 323 387 416 418
354 353 386 355 322 321 385 387 323 356 290 352 418 388 289 324 320 291 384 419 417
355 354 387 323 356 388 324 322 386 357 291 353 419 321 385 292 290 389 325 420 418
356 388 324 355 357 387 323 325 389 292 358 420 354 322 293 390 291 326 386 419 421
357 358 389 325 356 324 326 388 390 293 355 359 421 387 323 420 391 327 292 422 294
358 390 359 357 326 391 325 327 389 356 422 360 294 328 293 324 421 423 392 295 388
359 391 327 358 360 328 390 392 326 361 357 295 423 393 296 325 294 389 329 422 424
360 359 361 392 328 393 327 329 391 358 296 424 362 326 330 423 394 295 297 425 390
361 362 393 329 360 394 330 392 328 363 297 425 359 395 331 424 298 327 296 426 391
362 330 363 394 361 393 331 395 329 298 360 426 364 328 299 297 392 332 396 425 427
363 395 331 362 364 396 394 330 332 427 299 361 365 393 298 329 397 428 426 300 333
364 332 365 363 396 331 333 395 397 362 366 300 428 334 394 427 398 301 299 429 330
365 397 366 333 364 334 332 398 396 363 301 429 367 331 395 399 300 335 302 428 430
366 334 365 398 367 397 333 399 335 368 364 430 302 396 400 336 332 303 301 431 429
367 368 335 399 366 400 398 334 336 365 369 303 431 337 304 302 401 397 333 432 430
368 367 336 400 369 399 337 401 335 366 370 304 432 402 305 303 398 334 338 431 433
369 401 368 370 337 338 400 336 402 305 367 433 371 335 403 306 339 304 399 432 434
370 338 369 402 371 337 403 339 401 372 434 306 368 400 340 307 305 336 404 435 433
371 339 370 372 403 338 340 402 404 307 369 373 435 341 308 306 405 401 337 434 436
372 373 404 340 371 339 403 405 341 308 374 370 436 402 406 342 309 307 338 437 435
373 405 374 372 341 406 404 340 342 371 437 309 375 343 339 436 310 403 407 438 308
374 375 342 406 373 341 407 405 343 376 372 310 438 340 311 408 344 309 404 437 439
375 343 376 407 374 406 344 342 408 373 377 311 439 310 341 409 345 405 312 440 438
376 375 377 408 344 407 409 345 343 378 374 312 440 311 406 439 342 313 410 441 346
377 409 378 376 345 344 346 408 410 313 379 375 441 343 314 411 312 407 347 440 442
378 379 377 346 410 345 411 347 409 380 376 314 442 412 348 408 315 313 344 443 441
379 380 411 347 378 348 410 412 346 315 381 377 443 409 316 314 413 345 349 444 442
380 412 348 381 379 349 411 347 413 382 316 378 444 414 317 410 350 315 346 443 445
381 380 349 413 382 412 348 350 414 379 317 445 383 347 316 318 351 411 415 446 444
382 414 383 350 381 349 351 415 413 446 318 380 352 317 319 445 348 447 412 320 384
383 382 352 351 415 384 414 320 350 381 319 353 447 321 288 318 413 349 385 446 416
384 415 416 385 352 417 353 447 383 448 320 386 414 382 446 321 351 354 479 449 418
385 384 417 353 386 416 354 418 352 321 387 415 449 320 383 322 450 355 419 448 447
386 387 418 385 354 353 417 355 419 388 322 450 384 352 449 323 451 321 416 420 356
387 388 386 419 355 420 356 354 418 385 323 389 451 357 421 353 417 324 322 452 450
388 356 389 387 420 357 421 355 419 452 324 386 390 323 418 325 358 453 354 422 451
389 388 421 357 390 358 420 422 356 387 325 453 391 324 452 359 454 326 355 423 419
390 358 391 389 422 357 359 421 423 454 326 392 388 356 327 325 453 360 420 455 424
391 390 359 423 392 360 424 422 358 393 455 389 327 357 326 361 328 454 425 456 421
392 393 424 360 391 359 423 425 361 328 394 390 456 455 358 327 457 422 329 426 362
393 361 394 425 392 426 360 362 424 395 329 457 391 363 330 456 359 423 328 458 427
394 393 362 426 395 363 361 425 427 330 392 458 396 329 331 424 360 457 459 428 364
395 396 427 394 363 364 426 428 362 393 331 397 459 458 330 460 425 361 332 429 365
396 428 364 397 395 427 365 363 429 394 398 332 460 366 362 331 430 459 426 461 333
397 365 429 398 396 430 428 364 366 461 395 399 333 363 334 427 332 460 367 431 462
398 366 430 397 399 365 429 431 367 334 462 396 400 463 428 335 461 333 364 432 368
399 398 367 431 400 368 366 430 432 397 463 401 335 334 336 365 369 464 433 462 429
400 401 368 432 399 369 433 431 367 336 398 402 464 366 335 370 337 463 430 434 465
401 400 369 402 433 368 434 370 432 337 403 399 465 466 367 338 371 435 464 431 336
402 434 403 370 401 369 435 371 433 466 338 404 400 339 368 337 432 372 465 467 436
403 371 402 404 435 372 436 370 434 339 401 405 467 338 369 373 437 468 340 466 433
404 405 403 436 372 437 373 435 371 340 402 468 406 467 341 374 434 370 339 438 469
405 373 406 404 437 438 436 372 374 469 341 403 407 342 375 340 435 371 468 470 439
406 407 374 438 405 373 439 437 375 342 404 408 470 341 376 436 343 469 471 372 440
407 406 439 375 408 440 438 374 376 471 343 405 409 373 377 344 472 437 470 441 342
408 409 407 440 376 441 377 439 375 410 406 472 344 343 345 442 471 438 374 473 378
409 410 408 441 377 378 442 440 376 473 411 407 345 344 379 439 375 472 346 474 443
410 409 378 411 442 443 377 441 379 474 412 408 346 347 345 440 376 475 473 444 380
411 412 379 410 443 444 442 380 378 409 347 413 475 381 348 474 441 346 377 476 445
412 444 411 380 413 379 381 445 443 476 410 414 348 347 349 382 477 446 378 475 442
413 381 414 445 412 382 380 444 446 349 477 411 415 379 350 383 478 443 476 447 348
414 415 382 413 446 447 383 445 381 350 384 478 412 349 351 416 380 444 352 479 477
415 383 414 447 384 382 416 446 352 351 413 385 479 350 381 320 353 478 448 417 445
416 447 448 384 417 479 415 385 449 446 352 480 418 481 353 383 450 478 414 386 511
417 449 418 416 385 450 386 448 384 447 353 419 481 479 482 352 387 354 480 415 451
418 417 386 419 450 387 385 449 451 482 416 354 420 483 448 353 481 384 355 388 452
419 451 418 387 420 450 452 388 386 483 417 421 355 385 449 482 453 484 354 389 356
420 421 388 452 419 387 453 389 451 356 422 418 484 450 357 485 390 483 454 355 386
421 453 422 420 389 390 388 454 452 357 419 485 423 486 358 356 451 387 484 391 455
422 423 454 390 421 455 391 389 453 420 358 486 424 357 359 388 452 487 485 456 392
423 391 455 424 422 390 454 392 456 487 421 425 359 453 457 488 393 389 358 360 486
424 425 423 392 456 393 455 391 457 422 488 360 426 487 359 454 390 361 489 394 458
425 393 426 424 457 392 394 456 458 427 423 489 361 488 455 490 395 362 360 391 459
426 425 394 427 458 393 457 459 395 428 490 424 362 396 363 489 491 456 460 392 361
427 428 459 426 395 394 396 460 458 363 491 429 425 393 492 490 457 362 364 397 461
428 460 396 429 427 459 395 461 397 426 364 492 430 394 363 491 458 398 365 462 493
429 397 428 461 430 462 460 398 396 365 427 493 431 459 494 366 395 399 492 463 364
430 431 398 429 462 461 397 463 399 366 428 494 432 365 367 460 493 396 495 400 464
431 463 399 432 430 462 464 400 398 367 495 429 433 366 496 494 397 368 461 465 401
432 400 433 464 431 463 401 465 399 430 368 434 496 462 466 369 402 497 495 398 367
433 465 401 432 434 466 464 402 400 431 369 497 435 368 498 370 463 399 496 403 467
434 466 433 402 435 401 465 403 467 370 432 498 436 468 369 371 499 497 400 404 464
435 434 467 403 436 466 468 404 402 433 371 499 437 465 372 370 500 405 498 469 401
436 404 468 435 437 403 467 469 405 434 500 372 438 373 499 371 466 402 501 406 470
437 436 438 405 469 470 406 404 468 373 501 435 439 403 467 471 500 407 374 502 372
438 470 406 439 437 407 469 405 471 436 502 440 374 468 503 501 373 404 408 472 375
439 471 440 407 438 406 470 408 472 437 503 375 441 374 502 469 405 376 504 409 473
440 472 408 441 439 471 473 409 407 504 442 376 438 406 470 410 375 503 474 505 377
441 440 442 409 473 410 474 472 408 377 443 439 505 471 475 376 506 378 504 411 407
442 443 441 474 410 475 409 473 411 440 378 506 444 379 507 377 472 408 505 412 476
443 442 444 411 475 412 476 410 474 379 441 507 445 409 477 473 378 506 508 413 380
444 476 443 445 412 475 411 477 413 446 442 380 508 507 474 478 509 410 381 414 379
445 444 413 446 477 478 476 412 414 381 443 509 447 382 380 510 475 411 508 415 479
446 445 447 414 478 477 415 413 479 416 382 510 444 381 509 383 412 384 476 511 448
447 415 446 479 416 384 478 448 414 511 445 383 417 477 480 382 449 510 385 413 352
448 449 416 480 479 447 511 417 481 450 512 478 384 482 385 415 446 418 510 513 543
449 448 450 481 417 418 416 482 480 479 385 451 513 511 447 384 386 419 483 512 514
450 449 451 482 418 481 419 417 483 514 386 452 448 385 513 515 387 480 416 484 420
451 452 419 483 450 484 418 482 420 453 387 515 449 481 417 386 388 421 485 516 514
452 451 484 420 453 421 485 483 419 450 454 516 388 422 482 486 387 515 418 389 517
453 452 454 485 421 420 484 486 422 455 389 517 451 487 423 390 388 419 483 516 518
454 422 486 453 455 487 485 423 421 452 456 390 518 488 420 389 424 391 484 519 517
455 454 487 423 456 422 424 486 488 391 453 519 457 392 421 489 390 485 425 518 520
456 488 455 457 424 487 425 489 423 520 454 392 458 393 519 422 391 521 486 426 490
457 456 458 489 425 488 490 426 424 459 455 521 393 487 423 394 392 427 491 522 520
458 490 459 457 426 491 427 489 425 394 522 456 460 488 424 492 393 428 395 521 523
459 460 427 458 491 428 490 426 492 457 523 395 461 394 425 429 522 493 489 524 396
460 428 492 461 459 491 427 429 493 396 462 458 524 426 430 397 490 494 395 525 523
461 493 460 429 462 494 428 492 430 459 397 463 525 431 495 427 396 398 491 524 526
462 494 461 430 463 431 495 429 493 464 398 526 460 428 496 399 432 397 492 527 525
463 431 495 462 464 494 432 430 496 465 399 527 461 497 433 398 400 429 493 528 526
464 465 496 432 463 431 495 497 433 462 466 400 528 430 401 399 494 434 498 527 529
465 433 497 466 464 434 496 498 432 401 467 463 529 431 499 435 400 495 402 530 528
466 467 465 434 498 433 497 435 499 468 464 402 530 500 432 436 529 403 496 531 401
467 466 435 468 499 436 434 500 498 465 403 469 531 497 433 501 402 404 437 530 532
468 500 469 436 467 435 501 499 437 532 404 470 466 533 405 531 498 434 403 502 438
469 501 437 470 468 500 502 436 438 471 467 533 405 503 435 406 404 439 499 534 532
470 438 502 471 469 437 501 439 503 468 472 534 406 500 504 407 405 436 440 533 535
471 472 470 439 503 502 504 440 438 473 469 407 535 437 441 501 505 408 406 536 534
472 473 471 440 504 441 505 439 503 474 470 408 536 438 407 535 409 502 506 537 442
473 505 474 472 441 442 506 504 440 475 471 409 537 507 503 439 408 410 443 536 538
474 506 473 475 442 507 443 441 505 538 410 472 476 440 409 537 539 411 504 508 444
475 507 474 476 443 444 506 508 442 473 477 411 539 509 441 538 412 410 505 540 445
476 477 444 475 508 507 445 509 443 474 478 412 540 510 442 413 411 506 446 539 541
477 476 509 445 478 446 510 508 444 479 413 541 475 507 443 511 447 412 414 540 542
478 446 479 510 477 511 509 447 445 414 542 448 476 444 413 416 480 508 415 543 541
479 448 478 447 511 446 480 510 416 477 415 449 543 509 414 445 481 384 417 542 512
480 481 448 511 512 513 479 543 449 544 416 510 482 575 447 542 545 450 417 514 478
481 480 513 449 482 512 448 514 450 511 483 545 417 479 544 416 418 515 451 546 543
482 483 514 450 481 515 451 449 513 480 484 546 418 547 417 512 545 419 448 516 452
483 482 515 484 451 514 450 452 516 481 547 485 419 548 513 418 453 420 449 546 517
484 483 516 485 452 453 517 515 451 486 482 420 548 450 421 454 518 549 419 547 514
485 484 517 486 453 516 518 454 452 483 421 549 487 422 515 451 420 550 548 519 455
486 518 487 485 454 517 519 455 453 488 422 484 550 516 421 551 456 423 549 520 452
487 486 488 455 519 520 456 454 518 423 551 485 489 453 422 424 457 550 517 552 521
488 456 489 487 520 521 519 455 457 424 486 490 552 425 423 454 518 553 551 522 458
489 521 488 457 490 520 458 456 522 487 491 553 425 519 554 424 426 552 455 459 523
490 489 491 522 458 457 459 523 521 488 554 492 426 425 427 460 524 555 456 553 520
491 490 492 459 523 524 522 458 460 555 427 489 493 556 428 426 461 521 554 525 457
492 460 493 524 491 459 523 525 461 556 428 490 494 522 557 458 427 429 555 526 462
493 461 525 492 494 462 526 524 460 429 495 491 557 428 459 430 463 556 523 527 558
494 495 493 462 526 525 527 461 463 558 430 492 496 431 429 464 524 557 559 528 460
495 496 527 494 463 462 464 528 526 559 431 497 493 465 432 560 430 558 461 525 529
496 495 528 464 497 463 465 527 529 432 498 494 560 462 466 431 433 559 526 530 561
497 529 498 465 496 466 530 528 464 433 499 495 561 463 562 467 434 531 560 527 432
498 530 466 499 497 531 465 467 529 500 496 562 434 433 468 528 563 464 435 532 561
499 467 531 498 500 468 532 466 530 497 501 563 435 465 436 564 434 562 529 533 469
500 499 468 532 501 467 531 533 469 498 436 564 502 565 466 437 530 563 435 534 470
501 533 469 500 502 468 532 470 534 565 503 437 499 471 467 535 436 438 531 566 564
502 503 534 501 470 469 533 535 471 500 504 438 566 468 437 439 565 567 536 532 472
503 504 502 535 471 470 534 472 536 567 439 505 501 566 438 469 533 440 568 537 473
504 472 505 536 503 471 535 473 537 440 506 568 502 567 470 569 474 534 441 538 439
505 473 537 504 506 474 538 472 536 507 503 441 569 440 475 471 442 568 535 539 570
506 505 538 474 507 475 473 537 539 504 442 508 570 571 569 536 472 441 443 540 476
507 508 506 475 539 538 476 540 474 571 509 443 505 537 473 477 572 442 444 570 541
508 507 509 540 476 477 541 539 475 444 572 510 506 474 443 478 445 573 542 571 538
509 541 508 510 477 478 542 476 540 507 445 573 511 444 539 475 574 446 572 543 479
510 478 542 509 511 543 477 479 541 446 480 574 508 540 448 445 447 573 476 512 575
511 543 479 510 480 478 448 512 542 509 575 481 447 446 477 416 449 574 541 544 513
512 480 543 513 544 511 481 545 575 542 576 514 448 479 607 574 577 546 510 449 482
513 512 514 545 481 546 482 544 480 449 577 515 543 450 547 578 575 576 483 511 448
514 482 546 513 515 547 481 545 483 450 512 516 578 449 577 579 480 544 451 484 548
515 514 516 547 483 482 546 484 548 579 513 451 517 450 481 452 545 485 549 580 578
516 517 484 548 515 485 549 547 483 580 452 518 514 453 581 546 579 550 486 451 482
517 518 516 549 485 484 486 548 550 453 581 515 519 452 580 582 483 547 454 487 551
518 517 519 550 486 549 487 551 485 516 520 454 582 453 484 548 455 581 552 583 488
519 551 487 518 520 552 550 488 486 455 583 521 517 549 584 582 489 456 553 454 485
520 552 519 521 488 487 553 489 551 518 584 456 522 457 455 583 550 585 486 490 554
521 522 489 553 520 488 554 552 490 457 585 519 523 551 584 586 456 487 555 491 458
522 521 554 523 490 555 553 489 491 458 520 586 524 556 459 587 457 585 492 552 488
523 491 522 524 555 556 490 492 554 459 587 521 525 458 586 588 553 489 460 493 557
524 525 492 523 556 557 491 493 555 522 588 460 526 554 490 459 461 589 587 558 494
525 524 526 493 557 558 556 492 494 589 461 527 523 462 491 590 555 588 559 495 460
526 494 525 558 527 557 559 495 493 462 590 528 524 463 461 589 591 496 556 492 560
527 495 526 559 528 496 560 558 494 463 525 591 529 462 590 557 592 561 493 464 497
528 496 527 529 560 561 495 497 559 526 530 592 464 562 465 593 463 498 558 591 494
529 528 530 497 561 562 498 560 496 465 593 531 527 559 592 594 495 466 464 499 563
530 531 562 529 498 497 561 499 563 528 466 594 532 465 496 593 595 500 560 564 467
531 499 563 530 532 500 564 562 498 533 467 595 529 468 501 596 565 497 561 594 466
532 533 564 531 500 501 499 563 565 468 596 530 534 597 595 562 498 469 467 502 566
533 532 534 565 501 566 564 502 500 469 597 531 535 468 596 567 563 503 598 499 470
534 566 533 535 502 565 567 501 503 470 598 536 532 471 599 500 564 597 504 469 568
535 536 567 534 503 504 502 568 566 533 471 599 537 470 600 565 598 472 501 505 569
536 537 535 568 504 503 505 567 569 534 600 472 538 599 566 471 473 570 601 502 506
537 536 569 505 538 568 504 570 506 539 473 601 535 507 474 602 503 600 571 472 567
538 539 570 537 506 507 505 571 569 474 602 536 540 473 568 603 504 601 475 508 572
539 540 507 571 538 570 506 572 508 541 537 475 603 474 602 476 569 573 505 604 509
540 539 572 541 508 573 509 571 507 476 604 538 542 605 477 574 570 603 510 506 475
541 540 573 542 509 508 510 572 574 539 477 605 543 476 604 571 507 478 606 511 575
542 574 543 510 541 509 575 573 511 606 512 478 540 477 605 479 572 508 607 480 544
543 575 512 542 511 544 510 480 574 513 479 607 541 481 545 509 573 576 448 606 478
544 575 512 545 576 607 543 513 577 574 608 480 546 511 542 578 606 609 639 514 481
545 513 546 577 544 512 514 576 578 575 547 609 481 515 543 482 480 579 607 608 610
546 547 545 514 578 515 513 577 579 548 482 544 610 481 580 576 516 483 512 611 609
547 515 546 579 548 516 514 578 580 611 483 545 549 517 482 610 577 612 581 484 513
548 547 580 516 549 579 515 581 517 550 484 612 546 514 518 485 483 578 582 611 613
549 548 550 517 581 580 516 582 518 551 547 485 613 484 515 583 579 519 486 614 612
550 518 549 551 582 517 581 519 583 548 552 486 614 520 580 613 516 487 485 615 584
551 552 583 519 550 518 520 584 582 487 549 615 553 517 581 488 486 521 585 614 616
552 584 551 553 520 519 585 521 583 488 554 616 550 518 615 522 617 582 489 586 487
553 552 521 585 554 520 586 584 522 555 551 617 489 488 519 583 523 618 490 587 616
554 555 522 553 586 585 521 523 587 556 490 552 618 520 491 588 524 489 584 617 619
555 556 587 523 554 586 524 522 588 553 557 619 491 521 490 589 525 492 585 620 618
556 524 588 555 557 525 589 523 587 554 558 492 620 586 619 522 493 491 590 621 526
557 556 558 589 525 588 590 526 524 493 555 559 621 523 494 492 527 587 591 620 622
558 590 557 559 526 589 525 527 591 560 556 622 494 524 592 528 588 493 495 623 621
559 527 591 560 558 590 528 526 592 495 557 561 623 593 525 589 494 496 529 624 622
560 528 561 559 592 593 527 591 529 562 558 496 624 590 526 497 495 594 530 625 623
561 562 593 560 529 530 528 592 594 563 497 559 625 496 498 527 595 531 591 626 624
562 561 563 594 530 593 595 529 531 560 498 564 626 497 625 592 596 499 528 627 532
563 531 564 595 562 594 596 530 532 499 565 561 627 593 533 500 498 597 529 626 628
564 596 563 532 565 533 595 597 531 500 628 566 562 530 501 629 627 594 499 598 534
565 566 597 564 533 598 596 534 532 501 567 563 629 500 599 531 502 535 595 630 628
566 598 534 567 565 535 597 599 533 502 630 564 568 596 503 501 532 536 600 629 631
567 566 599 568 535 536 534 600 598 569 503 631 565 537 533 601 597 502 504 632 630
568 567 600 569 536 537 535 599 601 566 570 504 632 503 598 538 505 534 602 633 631
569 570 537 568 601 536 600 602 538 567 571 505 633 535 599 506 504 539 603 632 634
570 602 538 569 571 601 537 539 603 572 568 634 506 507 604 540 600 536 505 633 635
571 603 539 572 570 538 604 602 540 507 569 573 635 601 537 508 541 506 605 636 634
572 571 540 573 604 605 603 539 541 508 574 570 636 538 507 602 606 509 542 635 637
573 605 572 574 541 542 540 604 606 509 575 571 637 607 603 543 510 508 539 638 636
574 575 542 606 573 543 605 607 541 544 510 572 638 509 540 604 512 576 511 639 637
575 574 543 607 544 606 512 576 542 511 639 573 545 605 541 480 510 513 577 638 608
576 544 608 577 607 639 575 545 609 640 512 578 606 574 671 543 638 546 513 641 610
577 609 578 545 576 546 544 610 608 513 579 607 641 575 512 547 611 642 514 640 639
578 579 610 546 577 547 609 545 611 642 514 576 580 641 548 544 643 608 513 612 515
579 547 580 611 578 546 610 548 612 581 577 643 515 516 514 545 642 609 549 644 613
580 612 548 579 581 547 549 613 611 582 516 644 578 515 610 517 645 546 550 643 614
581 580 613 549 582 548 614 612 550 579 517 645 583 547 516 551 518 611 646 615 644
582 550 614 583 581 615 551 613 549 646 518 584 580 548 645 519 517 612 552 647 616
583 551 615 584 582 552 614 550 616 581 519 585 647 518 613 520 617 549 553 646 648
584 585 616 583 552 551 615 553 617 648 582 520 586 521 614 554 647 550 519 618 649
585 584 586 553 617 552 618 554 616 521 583 649 587 522 551 648 615 555 520 650 619
586 587 618 554 585 619 617 553 555 588 522 584 650 521 556 616 523 649 651 552 620
587 555 619 588 586 556 620 618 554 585 523 651 589 557 524 650 617 553 652 621 522
588 556 589 620 587 621 557 619 555 652 590 524 586 525 554 558 523 618 651 653 622
589 590 557 621 588 556 558 620 622 525 591 587 653 524 526 654 623 555 559 652 619
590 558 622 589 591 623 621 559 557 588 526 654 592 556 560 525 653 620 655 624 527
591 590 592 623 559 624 622 558 560 589 527 593 655 528 526 557 654 621 561 656 625
592 593 624 591 560 625 623 559 561 594 590 656 528 527 562 622 558 655 626 657 529
593 625 561 594 592 562 560 624 626 529 595 591 657 528 623 563 530 627 658 559 656
594 593 562 595 626 563 625 561 627 596 658 592 530 560 657 529 624 564 531 659 628
595 596 627 594 563 564 626 562 628 593 597 531 659 530 565 660 629 532 561 658 625
596 597 564 628 595 563 627 565 629 594 660 598 532 626 566 531 533 661 562 630 659
597 565 629 598 596 630 628 564 566 599 533 595 661 567 534 563 660 627 532 662 631
598 566 599 630 597 565 567 631 629 596 662 600 534 533 535 568 632 564 663 661 628
599 567 598 600 631 632 566 630 568 535 597 663 601 565 629 569 534 664 536 633 662
600 601 568 632 599 633 569 631 567 598 664 536 602 535 537 566 665 663 630 634 570
601 602 569 600 633 632 570 568 634 665 599 537 603 538 567 571 631 664 536 666 635
602 601 570 603 634 569 633 571 635 538 666 600 604 539 667 632 537 665 568 636 572
603 602 571 635 604 636 572 570 634 539 601 605 667 540 538 569 666 633 573 668 637
604 605 603 572 636 573 571 637 635 668 602 606 540 541 638 669 570 539 574 667 634
605 604 606 637 573 638 636 574 572 541 603 669 607 571 668 540 670 542 635 639 575
606 607 638 574 605 639 575 573 637 542 670 576 604 544 543 669 636 572 541 608 671
607 576 639 606 575 544 608 574 638 605 543 577 671 542 512 640 637 545 573 670 609
608 609 576 639 640 671 577 607 641 638 610 544 672 575 642 545 673 670 606 703 578
609 610 641 608 577 640 578 642 576 639 545 673 611 672 671 674 544 643 546 579 607
610 642 611 578 609 579 641 577 643 674 612 608 546 547 673 675 545 580 644 640 576
611 610 612 579 643 644 578 580 642 675 613 547 609 641 674 676 645 577 546 548 581
612 611 644 613 580 643 579 645 581 676 614 610 548 642 549 646 582 677 675 578 547
613 581 645 612 614 646 644 582 580 611 549 615 677 676 579 643 548 550 678 583 647
614 582 613 615 646 647 581 583 645 616 678 550 612 644 551 648 677 549 580 584 679
615 583 647 614 616 646 584 648 582 617 613 551 679 645 680 552 585 649 678 550 581
616 615 617 584 648 647 649 585 583 680 614 552 618 582 551 646 679 553 681 586 650
617 618 616 649 585 648 584 586 650 681 619 553 615 583 680 647 682 651 552 587 554
618 650 617 619 586 585 651 587 649 682 620 616 554 681 648 588 555 652 683 553 584
619 587 651 620 618 588 650 652 586 617 683 555 621 556 682 585 649 554 684 589 653
620 652 621 619 588 651 653 589 587 684 622 556 618 650 683 654 685 555 586 557 590
621 620 653 622 589 652 590 654 588 623 619 557 685 684 686 651 655 591 558 587 556
622 590 623 654 621 655 653 591 589 620 558 624 686 685 588 652 557 559 687 592 656
623 622 591 624 655 590 654 592 656 625 687 559 621 686 653 560 558 688 657 589 593
624 625 623 592 656 657 655 591 593 626 622 560 688 654 658 689 590 594 687 561 559
625 657 626 624 593 658 592 656 594 623 689 627 561 690 560 655 591 562 688 595 659
626 627 625 594 658 593 657 659 595 624 628 690 562 689 691 660 592 561 656 596 563
627 595 626 659 628 658 596 660 594 691 629 563 625 690 564 661 597 692 657 562 593
628 660 596 629 627 661 595 659 597 626 630 564 692 565 691 594 658 693 563 598 662
629 630 628 597 661 596 662 660 598 565 631 627 693 595 659 599 692 663 564 694 566
630 629 662 631 598 661 597 663 599 694 632 628 566 660 567 600 693 664 695 596 565
631 630 663 599 632 600 598 664 662 567 695 629 633 566 597 696 694 661 568 601 665
632 664 600 631 633 665 599 601 663 630 568 696 634 695 567 662 602 666 598 697 569
633 632 601 634 665 666 602 600 664 697 635 569 631 663 599 667 570 696 698 603 568
634 635 633 666 602 667 601 665 603 632 570 698 636 571 697 664 569 600 699 604 668
635 636 634 667 603 602 666 668 604 637 633 571 699 601 665 572 698 669 570 700 605
636 635 668 604 637 669 603 605 667 634 638 572 700 666 606 573 602 701 699 670 571
637 669 638 636 605 606 670 604 668 701 635 573 639 702 572 667 603 574 700 607 671
638 637 639 606 670 669 605 671 607 608 574 702 636 701 640 703 575 668 604 576 573
639 638 608 671 607 640 576 606 670 703 575 637 609 669 672 544 605 577 702 574 641
640 641 608 672 671 609 673 703 639 642 670 704 576 674 638 607 577 610 702 705 735
641 609 673 642 640 610 608 674 672 671 643 705 577 639 675 578 576 703 611 704 706
642 641 643 674 610 611 673 609 675 640 644 706 578 672 612 676 577 579 608 707 705
643 611 642 644 675 612 674 676 610 641 645 579 707 609 578 613 580 677 673 708 706
644 645 676 612 643 611 613 677 675 642 646 580 708 674 579 610 581 678 614 707 709
645 646 677 644 613 676 614 612 678 581 647 709 643 615 611 679 580 582 675 708 710
646 614 678 645 647 615 679 613 677 648 644 582 710 612 676 583 581 680 616 711 709
647 679 615 648 646 680 678 616 614 645 649 711 583 681 582 584 613 617 677 710 712
648 616 647 649 680 681 617 679 615 646 650 584 712 614 583 682 618 678 585 713 711
649 650 617 681 648 680 616 682 618 651 585 713 647 615 584 619 586 683 679 714 712
650 682 651 649 618 681 617 683 619 648 652 586 714 684 585 587 616 680 620 713 715
651 683 619 650 652 682 684 620 618 653 587 649 715 681 586 617 685 621 588 716 714
652 684 620 653 651 619 621 685 683 654 650 588 716 618 682 587 589 686 622 717 715
653 652 621 685 654 622 620 684 686 655 651 589 717 619 590 588 683 623 687 716 718
654 655 686 622 653 623 685 621 687 590 656 718 652 684 620 688 591 589 624 717 719
655 656 623 687 654 622 688 686 624 719 657 653 591 689 621 590 718 592 685 720 625
656 655 624 657 688 623 689 687 625 658 592 720 654 690 622 591 626 686 593 719 721
657 625 658 656 689 690 626 688 624 593 659 655 721 623 691 627 687 594 592 720 722
658 657 659 690 626 689 625 691 627 660 594 722 656 624 595 593 628 692 688 723 721
659 627 691 658 660 626 690 692 628 595 661 657 723 689 625 596 693 629 594 722 724
660 692 659 661 628 691 629 627 693 596 662 658 724 690 626 630 723 694 597 725 595
661 662 629 660 693 694 692 630 628 663 597 659 725 695 691 627 598 596 631 726 724
662 663 661 630 694 629 631 693 695 660 598 664 726 628 696 597 632 692 599 725 727
663 695 664 631 662 632 696 630 694 661 665 599 727 598 629 697 600 693 633 728 726
664 632 696 663 665 697 633 631 695 666 662 728 600 634 694 727 601 630 698 729 599
665 666 664 697 633 632 698 696 634 601 667 663 729 695 631 699 600 602 635 728 730
666 698 665 667 634 697 635 633 699 668 602 664 730 601 636 632 700 603 696 731 729
667 635 666 668 699 700 636 698 634 669 665 603 731 697 633 730 604 602 637 732 701
668 669 700 636 667 637 635 699 701 666 604 732 670 605 634 702 603 698 638 731 733
669 670 701 668 637 636 638 700 702 671 605 733 667 639 606 604 703 699 635 732 734
670 638 669 671 702 703 701 639 637 668 640 606 734 636 672 607 605 608 700 735 733
671 639 703 670 640 638 702 672 608 669 641 607 735 576 673 606 609 637 701 734 704
672 640 704 703 673 641 705 735 671 736 674 702 608 670 734 639 706 642 609 767 737
673 705 641 672 674 640 642 706 704 675 703 609 737 671 610 735 608 736 643 707 738
674 706 675 673 642 641 705 707 643 738 672 610 676 737 611 704 640 739 609 708 644
675 707 674 676 643 642 706 644 708 611 739 673 677 641 705 645 612 740 709 610 738
676 675 677 708 644 645 709 707 643 674 678 612 740 642 646 611 613 739 710 741 706
677 678 709 676 645 710 646 708 644 679 613 675 741 742 707 647 614 711 643 612 740
678 677 679 646 710 709 711 647 645 680 676 742 614 708 648 743 613 615 644 712 741
679 678 647 711 680 712 646 710 648 681 743 677 615 614 645 616 713 744 649 742 709
680 648 681 679 712 713 711 647 649 744 682 616 678 745 650 710 615 743 617 714 646
681 649 682 680 713 650 648 714 712 679 683 617 745 651 715 647 711 618 616 746 744
682 683 650 714 681 713 651 715 649 684 746 680 618 648 617 619 716 747 652 745 712
683 682 684 651 715 650 652 714 716 681 747 685 619 748 653 620 746 713 649 717 618
684 652 716 685 683 651 653 717 715 682 686 748 620 749 714 654 650 621 747 718 619
685 686 653 684 717 654 652 716 718 621 683 687 749 622 620 651 655 748 750 719 715
686 685 687 654 718 655 717 653 719 684 622 688 750 623 621 716 652 751 749 720 656
687 655 719 688 686 718 654 656 720 689 623 751 685 721 624 622 750 657 653 717 752
688 720 656 689 687 655 719 721 657 690 624 686 752 654 658 623 625 722 751 718 753
689 688 657 690 721 658 720 656 722 625 687 753 691 655 626 659 719 754 752 723 624
690 691 689 658 722 721 659 723 657 692 754 626 688 720 755 625 627 753 656 724 660
691 690 692 659 723 724 658 722 660 689 627 755 693 661 626 628 721 725 756 657 754
692 660 691 693 724 725 723 661 659 756 628 694 690 629 627 722 658 755 757 726 662
693 661 725 692 694 662 660 724 726 691 629 695 757 663 630 727 628 756 723 758 659
694 662 695 726 693 661 727 725 663 696 692 630 758 660 629 631 664 757 724 728 759
695 727 694 663 696 664 662 726 728 631 697 759 693 661 632 760 665 729 725 630 758
696 695 697 728 664 727 665 729 663 698 632 760 694 761 726 759 666 633 631 662 730
697 698 696 729 665 730 666 728 664 695 699 633 761 663 632 667 634 760 727 731 762
698 697 666 730 699 665 729 667 731 762 700 634 696 633 668 728 635 761 763 732 664
699 698 731 667 700 732 730 666 668 697 635 763 701 669 665 636 733 634 762 764 729
700 668 732 699 701 733 669 731 667 702 636 698 764 666 637 730 635 763 670 765 734
701 700 702 669 733 732 734 668 670 637 765 699 703 638 764 636 766 667 731 735 671
702 670 734 703 701 671 669 733 735 638 766 672 700 767 732 668 765 639 637 704 640
703 735 702 672 671 704 640 734 670 639 673 767 701 669 638 641 705 736 608 766 733
704 672 736 735 705 737 767 703 673 768 640 706 734 671 766 799 769 738 702 674 641
705 737 706 704 673 736 672 738 674 641 707 769 735 642 770 767 768 675 739 703 640
706 707 674 705 738 737 739 673 675 642 704 770 708 641 736 771 672 769 643 676 740
707 706 675 739 708 740 674 738 676 709 771 643 705 642 737 644 770 677 741 772 673
708 709 740 707 676 741 677 739 675 710 772 644 706 738 742 674 678 645 771 643 773
709 708 741 677 710 742 678 740 676 645 773 711 707 646 644 739 774 772 675 679 743
710 742 711 678 709 743 741 677 679 708 646 712 774 645 773 647 740 744 676 775 680
711 743 712 710 679 744 742 680 678 647 775 713 709 681 648 776 745 741 774 646 677
712 713 680 711 744 681 743 745 679 648 710 776 714 647 742 777 775 678 649 682 746
713 681 714 712 745 746 680 744 682 715 711 649 777 648 776 650 743 778 679 683 747
714 746 715 682 713 681 747 683 745 778 712 650 716 744 779 748 680 651 777 649 684
715 714 716 683 747 684 746 748 682 779 651 713 717 650 778 745 681 780 652 685 749
716 715 748 684 717 747 685 683 749 714 780 652 718 779 651 746 653 781 750 682 686
717 716 749 718 685 750 684 748 686 653 715 781 719 654 782 751 747 780 687 683 652
718 717 750 686 719 751 749 685 687 654 782 720 716 655 653 783 781 688 684 748 752
719 718 751 720 687 750 688 752 686 655 721 717 783 654 782 749 784 753 685 656 689
720 752 719 688 721 753 751 687 689 718 784 722 656 783 754 655 785 690 657 750 686
721 689 753 720 722 690 688 754 752 719 723 657 785 784 786 751 687 656 658 691 755
722 690 721 723 754 753 755 691 689 720 724 786 658 688 785 659 787 756 752 692 657
723 722 755 691 724 754 756 690 692 787 659 725 721 660 689 757 786 753 693 658 788
724 723 725 692 756 755 693 691 757 660 722 788 726 661 659 789 690 787 754 694 758
725 724 757 693 726 692 756 694 758 661 723 727 789 660 755 662 788 691 759 790 695
726 694 758 725 727 757 759 693 695 662 724 728 790 756 760 696 789 791 663 661 692
727 728 695 726 759 758 694 696 760 663 791 725 729 662 790 757 792 693 664 697 761
728 696 729 760 727 695 759 761 697 792 730 664 726 663 758 665 793 791 762 698 694
729 730 728 761 697 762 760 696 698 727 665 731 793 666 794 695 792 759 699 763 664
730 762 731 698 729 697 699 763 761 666 794 728 732 665 795 760 696 667 793 700 764
731 763 732 730 699 698 700 762 764 733 729 795 667 697 666 794 761 701 668 796 765
732 733 700 764 731 765 701 699 763 796 730 734 668 667 762 797 669 795 766 702 698
733 734 732 701 765 764 702 766 700 669 797 731 735 668 763 798 796 699 670 703 767
734 766 702 735 733 765 767 703 701 704 732 798 670 669 700 797 764 671 672 736 799
735 767 703 734 704 672 736 766 702 799 705 671 733 701 640 798 768 765 737 673 670
736 767 768 737 704 705 735 769 799 738 672 766 800 798 706 734 673 770 703 801 831
737 736 738 705 769 770 704 706 768 673 739 801 767 771 735 674 672 799 707 800 802
738 770 706 739 737 769 705 771 707 740 674 736 802 708 772 704 673 675 768 803 801
739 740 707 771 738 772 708 770 706 675 803 741 737 769 709 773 676 705 674 804 802
740 708 739 772 741 771 709 707 773 676 742 738 804 710 770 706 677 675 774 803 805
741 742 773 709 740 710 772 708 774 743 677 805 739 676 775 711 678 771 707 806 804
742 741 710 774 743 709 775 773 711 744 740 678 806 712 772 708 679 776 677 807 805
743 711 742 775 744 776 774 712 710 679 745 741 807 713 680 709 773 678 777 806 808
744 743 776 712 745 711 713 777 775 746 742 808 680 681 714 778 774 679 710 809 807
745 713 744 746 777 776 712 778 714 747 809 743 681 711 680 715 682 775 779 810 808
746 778 714 745 747 779 715 713 777 744 810 748 682 712 780 681 683 716 776 809 811
747 746 748 715 779 778 716 714 780 749 745 811 683 713 781 717 684 777 682 812 810
748 749 780 716 747 717 715 781 779 684 746 750 812 778 718 714 685 782 683 813 811
749 781 750 748 717 780 782 716 718 685 747 813 751 684 715 783 686 779 719 812 814
750 782 718 751 749 717 783 781 719 752 748 814 686 784 720 780 687 685 716 815 813
751 750 752 783 719 720 782 718 784 687 749 815 753 717 721 688 686 781 785 816 814
752 753 751 720 784 783 719 785 721 754 688 750 816 782 718 786 689 687 722 815 817
753 721 785 752 754 786 720 784 722 817 689 751 755 783 688 719 816 818 787 723 690
754 786 755 722 753 721 723 785 787 690 752 756 818 689 817 784 691 720 724 819 788
755 754 723 756 787 722 786 788 724 691 757 819 753 725 721 692 690 789 785 818 820
756 757 755 788 724 723 725 787 789 758 754 820 692 722 786 790 726 693 691 821 819
757 756 725 758 789 790 726 724 788 755 821 759 693 723 727 787 692 822 820 694 791
758 759 790 757 726 725 791 789 727 694 760 756 822 724 792 695 693 788 728 821 823
759 791 760 727 758 790 792 726 728 695 761 757 823 725 694 822 793 729 789 824 696
760 728 759 792 761 727 729 793 791 758 762 696 824 695 730 790 794 726 697 825 823
761 760 729 762 793 792 794 730 728 697 759 825 763 727 698 696 791 731 795 824 826
762 730 763 761 794 793 731 729 795 764 760 698 826 697 728 792 796 732 699 827 825
763 762 795 731 764 730 794 732 796 827 765 699 761 797 733 793 729 828 826 700 698
764 732 796 763 765 731 797 795 733 700 762 828 766 794 730 701 699 734 798 827 829
765 797 764 766 733 734 798 732 796 767 701 829 763 731 700 735 799 795 702 830 828
766 798 765 734 767 797 799 733 735 764 702 736 830 732 796 829 768 704 701 831 703
767 766 735 799 736 704 734 798 768 703 765 737 831 797 705 733 672 702 769 830 800
768 736 769 799 800 737 801 831 767 704 798 770 832 738 705 735 802 766 863 833 830
769 801 737 770 768 738 802 736 800 833 799 771 705 706 704 739 803 834 767 832 831
770 771 802 769 738 737 801 803 739 834 706 768 772 736 707 740 800 833 705 804 835
771 772 739 803 770 740 738 804 802 707 769 773 835 708 737 805 834 801 741 836 706
772 740 771 773 804 805 803 741 739 708 770 774 836 738 742 709 802 835 837 707 806
773 772 741 805 774 740 804 742 806 837 709 771 775 838 708 710 836 739 803 807 743
774 773 806 775 742 743 807 805 741 838 710 772 776 744 711 740 709 804 837 839 808
775 776 774 807 743 744 808 806 742 773 711 777 839 809 710 805 745 838 712 840 741
776 777 808 775 744 745 807 743 809 712 840 774 778 746 713 806 711 742 841 810 839
777 776 745 778 809 808 746 810 744 775 841 779 713 712 714 743 747 807 840 811 842
778 777 779 810 746 745 811 809 747 714 776 842 780 744 713 808 715 841 812 843 748
779 747 811 778 780 812 746 810 748 781 777 715 843 745 842 749 716 813 714 844 809
780 812 781 779 748 813 749 747 811 782 844 778 716 746 717 843 810 750 715 845 814
781 782 813 780 749 750 748 812 814 783 717 845 779 716 718 846 815 747 751 844 811
782 783 814 750 781 815 813 749 751 780 718 846 784 719 752 717 845 748 847 816 812
783 784 782 815 751 816 750 814 752 719 785 781 847 720 749 846 813 718 753 848 817
784 752 816 785 783 753 815 817 751 782 720 786 848 719 754 814 721 847 818 849 750
785 753 817 786 784 754 752 818 816 783 721 787 849 722 720 815 755 819 850 751 848
786 785 754 818 787 753 819 755 817 722 850 788 784 723 721 849 756 816 752 851 820
787 819 788 786 755 756 754 820 818 785 723 789 851 757 722 817 724 821 753 852 850
788 789 756 820 787 821 755 819 757 724 786 852 790 754 758 725 723 818 851 822 853
789 757 821 788 790 822 758 820 756 853 787 791 725 755 726 759 724 819 852 854 823
790 822 758 789 791 757 823 821 759 792 854 726 788 725 820 756 855 727 760 853 824
791 792 823 759 790 758 822 760 824 727 855 789 793 854 761 728 726 856 757 825 821
792 824 793 791 760 825 761 823 759 790 794 728 856 729 727 762 855 822 758 857 826
793 792 761 794 825 762 826 760 824 729 791 795 857 728 823 759 858 730 763 827 856
794 795 762 826 793 827 761 825 763 792 730 858 796 859 764 731 729 857 760 828 824
795 794 796 763 827 828 826 762 764 793 797 859 731 730 858 732 761 825 765 860 829
796 797 764 795 828 765 763 827 829 794 732 798 860 731 826 762 861 733 766 859 830
797 765 796 829 798 766 764 828 830 733 799 795 861 860 827 734 767 831 763 732 862
798 797 830 766 799 767 831 829 765 768 734 796 862 735 764 800 733 828 736 863 861
799 768 767 831 798 830 766 736 800 769 735 797 863 734 704 829 765 737 801 832 862
800 801 832 768 831 799 769 833 863 802 736 864 830 798 865 862 770 834 767 895 737
801 833 802 800 769 832 834 770 768 831 803 865 737 864 863 738 866 771 835 799 736
802 803 834 770 801 833 771 769 835 738 800 866 804 737 867 832 768 739 865 772 836
803 802 804 771 835 834 770 772 836 805 801 739 867 738 769 833 773 837 868 866 740
804 805 803 772 836 835 773 837 771 868 806 740 802 834 770 838 741 867 869 774 739
805 806 773 804 837 838 772 774 836 803 807 741 869 740 870 835 771 742 868 775 839
806 807 774 805 838 837 773 775 839 808 870 742 804 772 869 836 743 840 871 741 776
807 839 808 806 775 838 776 774 840 871 805 743 809 872 837 841 777 870 744 773 742
808 807 840 776 809 777 839 775 841 744 872 806 810 745 873 743 838 774 871 778 842
809 808 810 777 841 842 778 840 776 745 807 873 811 744 872 843 839 779 746 874 775
810 842 778 809 811 841 777 779 843 874 808 746 812 840 745 747 844 873 875 780 776
811 843 810 779 812 780 778 844 842 875 747 809 813 746 841 876 874 777 748 781 845
812 811 780 813 844 779 845 843 781 810 814 876 748 778 842 749 875 877 747 846 782
813 814 781 812 845 844 846 782 780 877 815 811 749 750 843 783 847 876 878 748 779
814 813 815 846 782 847 845 781 783 812 816 750 878 780 749 879 844 751 877 784 848
815 816 814 783 847 782 848 784 846 817 879 751 813 845 849 878 785 880 781 750 752
816 815 848 784 817 847 849 785 783 814 818 880 752 846 850 753 782 786 879 751 881
817 816 818 785 849 850 848 786 784 815 881 753 819 752 754 783 847 882 880 787 851
818 819 850 817 786 849 785 851 787 820 754 816 882 852 848 755 883 881 784 788 753
819 851 820 818 787 852 788 786 850 755 883 817 821 849 785 789 884 756 882 853 754
820 819 821 788 852 787 851 789 853 818 884 756 822 883 850 755 786 757 885 790 854
821 789 820 853 822 854 790 788 852 823 819 885 757 787 851 884 758 791 756 855 886
822 790 854 823 821 789 855 791 853 886 820 824 758 852 856 757 887 792 759 885 788
823 791 822 824 855 856 854 790 792 887 821 759 825 758 888 853 789 760 886 793 857
824 856 792 825 823 855 857 793 791 822 760 888 826 889 854 761 759 858 887 790 794
825 826 793 824 857 792 858 794 856 889 827 823 761 855 859 795 890 762 888 791 760
826 858 825 827 794 859 795 857 793 824 762 828 890 889 891 856 792 763 761 796 860
827 828 826 795 859 860 858 796 794 891 829 763 825 890 764 762 857 892 793 861 797
828 827 829 796 860 859 861 797 795 830 892 826 764 891 794 798 862 765 858 893 763
829 830 861 797 828 862 798 860 796 827 765 831 893 764 894 859 795 766 892 799 863
830 798 829 831 862 797 863 799 861 828 894 766 800 767 765 860 832 796 893 768 895
831 800 863 799 830 862 768 798 832 767 829 895 801 861 833 864 736 769 894 797 766
832 833 863 800 864 831 801 895 865 834 896 862 768 866 799 769 830 802 894 897 927
833 801 834 865 832 864 800 866 802 769 863 897 835 831 867 768 770 895 803 896 898
834 802 835 866 833 803 865 801 867 836 770 832 898 864 769 804 868 771 800 897 899
835 834 867 836 803 866 868 804 802 771 837 833 899 801 772 805 770 869 865 900 898
836 835 868 837 804 869 805 803 867 772 834 838 900 866 870 802 806 771 773 901 899
837 869 838 805 836 804 868 806 870 839 773 835 901 772 807 774 871 867 803 900 902
838 806 839 870 837 805 869 871 807 840 836 902 774 872 868 804 901 775 773 903 808
839 838 840 871 807 808 870 806 872 837 903 841 775 776 805 873 774 809 869 902 904
840 872 839 841 808 809 873 807 871 776 904 838 842 806 903 905 870 775 777 874 810
841 873 809 840 842 872 874 810 808 905 843 777 839 811 875 871 807 906 904 778 776
842 843 841 810 874 811 809 873 875 840 906 844 778 872 808 779 777 876 812 905 907
843 811 842 844 875 874 812 810 876 845 841 907 779 809 813 877 780 873 778 906 908
844 845 843 812 876 811 813 875 877 846 780 842 908 810 874 781 779 878 814 909 907
845 813 846 877 844 814 876 878 812 781 847 843 909 811 875 879 780 815 782 908 910
846 847 878 845 814 815 879 813 877 782 844 910 848 783 816 909 880 876 812 781 911
847 846 879 815 848 880 816 814 878 849 783 911 845 881 877 784 782 813 817 912 910
848 816 880 849 847 817 881 879 815 846 784 850 912 814 882 783 785 878 818 911 913
849 881 817 848 850 880 882 818 816 851 847 785 913 815 883 819 786 879 784 914 912
850 818 882 851 849 817 819 883 881 852 848 786 914 884 816 913 787 785 880 915 820
851 883 850 819 852 884 820 882 818 787 849 853 915 881 885 817 786 788 821 914 916
852 884 851 853 820 819 883 821 885 916 788 854 850 787 917 789 915 882 818 886 822
853 821 885 852 854 884 886 822 820 851 855 789 917 887 883 916 790 819 823 918 788
854 886 822 855 853 821 887 885 823 790 852 918 856 884 820 791 789 824 888 917 919
855 854 823 887 856 886 824 822 888 857 853 791 919 821 790 825 792 889 885 920 918
856 855 857 888 824 887 823 889 825 792 854 858 920 890 886 822 791 793 826 921 919
857 825 856 889 858 826 888 890 824 793 855 859 921 887 891 792 823 794 827 920 922
858 826 890 859 857 891 825 889 827 794 860 922 856 828 892 795 888 824 793 923 921
859 860 858 827 891 892 890 826 828 861 857 923 795 889 825 922 796 829 893 924 794
860 828 861 859 892 891 827 893 829 862 858 924 796 890 826 795 797 894 830 923 925
861 893 862 829 860 894 830 892 828 859 797 863 925 891 827 831 798 895 796 924 926
862 830 894 863 861 829 831 895 893 798 832 860 926 828 797 799 892 864 800 927 925
863 895 832 831 862 894 800 864 830 799 861 833 927 865 829 768 798 893 801 926 896
864 895 896 832 865 833 863 927 897 928 866 894 800 926 831 898 862 801 959 929 834
865 864 833 897 866 834 896 898 832 801 867 895 929 863 802 800 835 930 899 927 928
866 867 898 865 834 833 899 897 835 930 802 868 864 931 803 896 832 801 929 900 836
867 835 868 866 899 836 834 898 900 803 865 869 931 837 833 804 802 930 897 901 932
868 836 869 900 867 837 899 835 901 866 932 870 804 834 838 805 898 902 933 931 803
869 868 837 901 870 836 838 902 900 933 805 871 867 934 899 806 932 804 835 903 839
870 869 871 902 838 839 837 903 901 868 934 806 872 935 900 933 836 807 805 840 904
871 839 872 903 870 838 904 840 902 935 869 807 873 808 806 837 936 934 901 841 905
872 873 840 904 871 905 841 839 903 936 870 808 874 937 809 902 838 807 935 906 842
873 872 841 905 874 842 840 906 904 871 809 937 875 936 808 938 843 810 839 907 903
874 875 842 906 873 843 841 905 907 872 876 938 810 840 809 811 844 904 908 939 937
875 876 874 907 843 906 842 844 908 811 873 939 877 940 938 905 841 810 812 909 845
876 877 875 844 908 845 909 907 843 874 940 812 878 906 811 842 910 941 813 939 846
877 845 878 909 876 846 910 844 908 875 813 941 879 847 814 940 843 911 812 907 942
878 877 910 846 879 911 847 909 845 814 880 942 876 943 815 813 848 908 941 912 844
879 847 911 880 878 848 910 846 912 877 881 815 943 849 816 909 814 845 942 944 913
880 881 848 912 879 849 847 911 913 882 878 816 944 846 815 850 817 943 910 914 945
881 882 913 880 849 850 848 914 912 945 879 817 883 847 851 818 911 816 946 915 944
882 881 850 883 914 913 915 849 851 880 884 946 818 945 848 916 912 819 817 947 852
883 851 884 915 882 916 852 850 914 947 881 885 819 849 820 946 948 917 818 853 913
884 885 852 883 916 851 915 853 917 948 820 886 882 947 819 854 914 821 949 918 850
885 884 917 886 853 916 854 918 852 883 887 821 949 948 851 950 915 822 820 855 919
886 887 918 854 885 855 917 853 919 884 950 888 822 821 856 852 823 949 916 920 951
887 919 886 888 855 856 918 854 920 885 951 823 889 822 917 853 824 952 950 921 857
888 887 889 920 856 855 919 857 921 886 824 890 952 918 953 858 823 825 951 922 854
889 857 890 921 888 922 858 856 920 887 891 953 825 855 826 859 919 923 954 952 824
890 891 889 858 922 923 921 859 857 954 826 892 888 827 825 860 920 953 955 924 856
891 890 923 892 859 860 858 924 922 955 827 889 893 861 828 925 826 954 921 956 857
892 891 924 860 893 861 925 859 923 890 828 956 894 862 827 829 922 957 926 955 858
893 892 925 894 861 862 924 860 926 891 829 895 957 923 859 830 863 927 956 828 958
894 862 926 895 893 925 863 927 861 958 830 864 892 957 924 959 832 831 860 896 829
895 894 863 927 864 832 862 926 896 865 959 893 831 897 861 800 833 928 830 958 925
896 928 897 927 864 865 929 895 959 926 960 832 898 863 991 958 930 894 961 833 866
897 898 929 896 865 930 866 928 864 833 961 899 927 834 931 832 959 867 962 895 960
898 866 930 899 897 929 931 865 867 834 896 900 962 833 963 864 928 835 961 868 932
899 867 931 900 898 866 930 868 932 835 897 901 963 929 865 834 836 869 962 933 964
900 932 868 899 901 931 867 933 869 964 902 836 898 930 934 866 870 837 963 835 965
901 902 933 869 900 934 932 870 868 837 903 965 899 838 836 931 966 871 867 964 935
902 901 934 870 903 933 935 869 871 838 904 900 966 936 837 932 965 839 872 967 868
903 871 902 904 935 872 934 870 936 905 967 839 901 840 937 838 966 968 933 873 869
904 872 905 903 936 937 873 871 935 840 968 902 906 841 934 969 870 967 839 874 938
905 873 906 904 937 936 872 938 874 841 969 903 907 840 968 935 842 939 871 970 875
906 905 907 938 874 937 873 875 939 908 842 904 970 940 841 843 971 936 876 969 872
907 875 908 939 906 940 876 938 874 905 843 909 971 842 844 937 873 970 972 877 941
908 876 909 907 940 875 941 877 939 906 844 972 910 845 843 971 973 874 938 878 942
909 941 908 877 910 940 876 942 878 973 845 911 907 846 943 844 974 972 939 879 875
910 909 878 942 911 943 941 877 879 846 974 912 908 847 845 973 975 880 944 940 876
911 943 910 912 879 878 944 942 880 847 909 913 975 846 941 881 974 945 877 848 976
912 913 911 944 880 945 943 881 879 910 976 848 914 977 847 946 882 849 975 942 878
913 912 881 914 945 880 946 882 944 849 911 977 915 848 978 976 879 850 943 883 947
914 882 946 915 913 945 881 947 883 978 850 912 916 880 977 849 944 884 948 979 851
915 916 883 914 947 884 946 882 948 913 917 851 979 852 949 945 978 980 885 881 850
916 948 884 917 915 949 947 885 883 914 852 980 918 851 981 882 979 946 853 886 950
917 949 916 885 918 948 884 886 950 915 853 981 919 852 854 947 982 883 980 951 887
918 917 950 919 886 951 949 885 887 982 854 920 916 855 983 952 948 981 888 853 884
919 918 887 951 920 886 950 888 952 983 855 917 921 854 982 885 984 856 949 889 953
920 919 952 921 888 887 889 951 953 922 918 984 856 886 983 855 950 857 890 985 954
921 953 920 889 922 890 888 954 952 923 985 919 857 891 955 887 986 951 984 858 856
922 890 954 921 923 955 953 891 889 858 920 986 924 859 985 987 952 888 857 892 956
923 924 955 891 922 890 954 956 892 859 921 987 925 986 957 953 860 988 858 893 889
924 925 923 956 892 957 891 893 955 922 860 926 988 958 859 954 894 861 987 989 890
925 957 893 926 924 892 956 958 894 861 923 989 927 862 860 990 955 891 988 895 959
926 927 894 958 925 959 893 957 895 862 896 990 924 892 861 956 989 863 928 991 864
927 896 926 959 895 894 928 864 958 991 863 925 897 832 929 862 960 957 865 990 893
928 960 959 896 929 991 961 927 897 958 930 864 992 990 962 926 898 895 865 993 1023
929 930 897 928 961 896 962 960 898 931 865 959 993 991 866 864 899 927 963 994 992
930 898 962 931 929 897 961 899 963 866 994 928 932 993 865 995 896 867 960 964 900
931 932 899 930 963 964 900 962 898 929 933 995 867 901 961 866 868 897 965 996 994
932 964 931 933 900 899 965 963 901 934 930 868 996 898 966 869 867 962 902 995 997
933 932 934 965 901 964 902 900 966 935 931 997 869 899 903 967 870 868 963 998 996
934 966 902 935 933 967 903 901 965 936 932 870 998 904 964 871 900 968 869 999 997
935 934 967 936 903 968 902 966 904 937 933 871 999 901 969 905 870 872 965 1000 998
936 937 935 968 904 967 903 969 905 1000 872 934 938 999 1001 966 873 871 902 906 970
937 969 905 936 938 970 906 968 904 935 873 939 1001 872 907 903 874 967 971 1002 1000
938 937 906 939 970 971 905 969 907 874 936 940 1002 904 968 875 873 908 972 1001 1003
939 940 938 907 971 908 906 970 972 941 937 875 1003 905 909 973 876 874 969 1004 1002
940 941 972 908 939 907 909 971 973 938 942 876 1004 875 974 906 877 970 910 1005 1003
941 940 909 973 942 908 910 974 972 877 943 1005 939 975 971 876 878 907 911 1006 1004
942 943 974 910 941 973 909 975 911 1006 940 944 878 908 1005 1007 972 879 877 976 912
943 942 975 944 911 912 974 976 910 945 879 941 1007 973 913 880 878 977 909 1008 1006
944 943 945 976 912 977 911 913 975 880 946 1008 942 974 910 978 881 879 914 1007 1009
945 944 913 946 977 976 914 912 978 943 947 881 1009 880 911 915 1008 979 975 882 1010
946 978 947 914 945 977 913 915 979 1010 882 944 948 916 881 976 912 883 980 1011 1009
947 948 979 915 946 916 978 980 914 945 949 883 1011 913 981 882 917 977 884 1012 1010
948 949 916 947 980 917 915 981 979 1012 884 946 950 1011 978 1013 883 885 914 982 918
949 917 950 948 981 916 982 918 980 947 1013 885 951 919 915 884 979 1014 1012 886 983
950 918 982 951 949 983 919 981 917 886 948 1014 952 916 887 984 885 980 920 1013 1015
951 983 952 919 950 982 920 984 918 887 953 949 1015 886 981 985 921 917 888 1016 1014
952 920 984 953 951 983 919 985 921 950 1016 954 888 887 918 982 922 1017 1015 889 986
953 921 954 952 985 986 922 984 920 889 955 951 1017 983 919 888 987 923 890 1018 1016
954 955 953 922 986 985 923 921 987 890 1018 952 956 891 920 1017 924 1019 984 889 988
955 954 987 956 923 924 986 922 988 953 891 1019 957 925 892 890 989 921 985 1020 1018
956 955 957 924 988 923 987 989 925 892 954 1020 958 986 922 893 891 926 990 1019 1021
957 925 989 958 956 924 988 926 990 959 893 955 1021 923 894 892 927 991 987 1022 1020
958 990 959 926 957 925 991 989 927 928 956 1022 894 924 960 1021 988 1023 893 895 896
959 991 928 958 927 960 926 990 896 957 929 895 1023 897 864 1022 894 989 961 992 925
960 928 991 992 961 1023 959 929 993 0 896 962 990 930 958 897 1022 927 31 1 994
961 960 993 929 962 930 928 992 994 991 897 1 963 931 896 1023 898 959 995 0 2
962 961 930 994 963 995 931 993 929 960 898 2 964 928 932 899 992 3 897 996 1
963 962 931 995 964 930 996 994 932 961 3 965 899 929 900 933 898 993 2 4 997
964 965 963 996 932 931 997 995 933 4 962 966 900 934 899 930 901 3 994 998 5
965 933 966 997 964 934 932 998 996 5 967 963 901 931 4 935 902 999 900 6 995
966 965 934 967 998 999 935 933 997 964 6 902 968 932 936 5 903 996 901 7 1000
967 968 966 935 999 1000 998 936 934 7 903 965 969 937 902 904 997 933 8 1001 6
968 969 1000 936 967 1001 999 935 937 904 8 966 970 938 903 905 7 934 9 1002 998
969 937 970 968 1001 938 936 1000 1002 905 967 971 9 906 1003 8 999 935 939 10 904
970 1002 971 938 969 937 1003 1001 939 10 968 972 906 936 940 1000 1004 11 905 9 907
971 970 939 1003 972 1004 940 1002 938 11 907 969 973 937 908 10 12 906 1001 1005 941
972 940 971 1004 973 1005 939 1003 941 12 908 970 974 11 909 1002 907 942 938 13 1006
973 972 974 1005 941 1006 940 942 1004 909 13 971 975 908 943 910 1007 939 14 12 1003
974 1006 942 975 973 943 1005 941 1007 14 910 972 976 940 911 944 1004 13 15 1008 909
975 943 974 976 1007 1006 942 1008 944 973 911 15 977 945 912 16 941 1005 910 1009 14
976 975 977 1008 944 943 945 1007 1009 974 16 978 912 911 913 1006 946 17 1010 942 15
977 1009 978 945 976 946 1008 1010 944 17 913 979 975 943 18 914 912 1007 16 1011 947
978 979 977 946 1010 947 945 1011 1009 914 976 18 980 948 913 915 1012 944 1008 19 17
979 978 1011 947 980 948 946 1010 1012 915 19 977 981 945 914 949 916 1009 18 1013 20
980 948 1012 981 979 1013 1011 947 949 20 916 978 982 19 950 946 915 1010 917 1014 21
981 949 982 1013 980 1012 948 1014 950 983 917 21 979 918 916 947 951 1011 20 22 1015
982 1014 981 983 950 1015 951 1013 949 984 918 22 980 948 21 917 919 1016 952 1012 23
983 951 984 1015 982 952 1016 1014 950 919 981 23 985 22 24 920 918 1013 949 1017 953
984 983 952 1016 985 1017 953 951 1015 24 986 920 982 921 950 23 954 1014 919 25 1018
985 986 953 984 1017 954 1018 952 1016 983 921 25 987 920 955 922 1015 1019 951 24 26
986 987 954 985 1018 1019 1017 955 953 984 988 26 922 1016 923 25 921 952 27 1020 956
987 1019 955 988 986 956 954 1018 1020 27 989 923 985 957 953 924 922 28 1021 26 1017
988 956 987 1020 989 957 1021 1019 955 986 924 990 28 923 1022 1018 958 27 925 29 954
989 988 990 1021 957 956 1022 1020 958 29 925 987 991 1019 924 959 30 926 955 1023 28
990 991 958 989 1022 957 959 1021 1023 960 30 926 988 956 925 992 29 1020 927 31 928
991 960 1023 990 959 1022 928 992 958 927 31 989 961 957 929 1021 926 30 896 0 993
992 0 960 993 1023 31 961 1 991 928 1022 32 994 2 30 33 63 959 990 962 929
993 994 1 992 961 0 2 960 962 929 1023 995 33 31 34 3 991 930 963 32 928
994 993 2 962 995 3 961 1 963 930 34 992 996 931 0 33 35 960 929 964 4
995 994 996 3 963 964 2 4 962 35 993 931 997 34 930 5 961 965 932 36 1
996 4 964 995 997 3 5 965 963 36 994 998 932 35 2 6 37 966 933 962 931
997 998 5 996 965 964 6 966 4 37 995 933 999 932 36 3 963 934 38 967 7
998 997 6 999 966 965 5 967 7 1000 934 38 996 964 37 968 933 4 39 8 935
999 1000 967 998 7 6 968 8 966 1001 997 39 935 5 9 934 38 40 936 969 965
1000 8 968 999 1001 9 7 969 967 936 998 40 1002 937 41 10 966 935 39 970 6
1001 9 1000 1002 969 10 8 968 970 937 41 999 1003 967 936 971 7 11 40 42 938
1002 1003 970 10 1001 11 9 971 969 1004 1000 42 938 8 939 972 41 43 12 968 937
1003 1002 11 1004 971 972 970 12 10 1001 939 43 1005 940 42 9 938 969 44 973 13
1004 972 12 1005 1003 13 11 971 973 940 1002 44 1006 970 941 14 45 939 43 10 974
1005 1006 13 1004 973 974 12 14 972 45 1007 1003 941 11 942 975 44 46 15 971 940
1006 974 14 1005 1007 13 15 975 973 1004 46 942 1008 943 47 941 12 972 45 976 16
1007 1008 1006 975 15 14 16 974 976 943 47 1005 1009 13 17 46 944 48 942 973 977
1008 1007 1009 976 16 15 977 975 17 48 1006 1010 944 14 945 18 47 49 978 974 943
1009 977 17 1010 1008 18 978 976 16 1007 945 49 1011 944 15 946 50 975 48 979 19
1010 1009 1011 18 978 979 19 977 17 1012 946 50 1008 945 16 20 49 976 51 980 947
1011 19 1012 1010 979 18 20 980 978 1013 947 1009 51 17 21 52 946 981 50 948 977
1012 1011 980 20 1013 19 21 981 979 948 1010 52 1014 947 53 51 18 978 949 982 22
1013 21 1014 1012 981 982 20 980 22 53 1011 1015 949 948 979 950 19 54 23 52 983
1014 1013 1015 22 982 981 21 983 23 1012 950 54 1016 24 20 55 984 951 53 949 980
1015 23 1016 1014 983 24 982 22 984 55 951 1013 1017 21 56 950 54 981 952 985 25
1016 1015 24 1017 984 983 23 25 985 56 1014 952 1018 26 22 953 57 951 982 55 986
1017 25 1016 1018 985 984 26 986 24 953 1015 57 1019 56 58 987 27 954 23 952 983
1018 986 1019 26 1017 25 27 987 985 1016 954 1020 58 57 984 24 953 955 59 988 28
1019 987 1020 27 1018 988 26 986 28 1017 1021 955 59 25 954 58 60 985 29 989 956
1020 1019 1021 988 28 29 27 987 989 60 1022 1018 956 26 986 957 990 59 30 61 955
1021 1020 1022 989 29 30 28 990 988 957 1019 61 1023 958 27 62 60 987 956 991 31
1022 1021 990 1023 30 31 29 991 989 958 62 1020 992 957 988 28 61 63 0 959 960
1023 1022 991 31 992 960 990 0 30 63 993 1021 959 29 1 928 961 32 62 989 958
