827 17367
0 825 10 272 11 271 1 826 9 4 12 815 273 3 824 542 543 274 814 13 276
1 3 272 276 10 0 2 4 274 5 273 271 275 46 9 7 277 11 826 825 278
2 275 276 285 46 3 1 284 47 274 5 277 45 283 272 48 4 282 286 278 44
3 5 4 1 10 2 46 7 44 276 9 272 0 6 45 275 8 47 274 285 26
4 10 7 5 3 9 8 1 6 44 0 13 46 12 11 2 24 25 272 26 276
5 3 4 7 44 46 6 10 1 26 2 45 9 8 42 25 43 47 276 0 48
6 25 7 26 8 44 24 28 23 5 4 9 43 30 13 3 10 14 29 37 19
7 6 4 5 8 44 9 3 10 25 26 24 13 46 23 28 1 12 43 14 45
8 9 13 24 7 6 4 14 25 12 10 23 5 813 11 26 18 15 3 44 19
9 10 8 13 12 4 11 7 24 0 813 6 5 3 814 14 1 825 25 23 811
10 4 9 0 3 11 1 7 12 8 5 13 272 825 6 271 814 24 813 44 815
11 12 825 0 815 814 9 10 13 813 816 820 826 4 8 824 272 271 1 821 812
12 13 11 9 813 814 8 10 815 816 14 811 825 0 24 4 812 15 7 820 801
13 12 8 9 813 14 24 814 811 11 15 10 7 4 23 18 6 25 812 810 816
14 24 15 18 13 811 23 8 813 19 810 17 12 25 9 16 6 812 20 814 807
15 14 810 811 18 17 16 24 813 807 13 812 19 186 23 808 20 8 185 632 12
16 810 186 632 17 807 15 809 18 631 185 184 811 808 634 20 14 806 812 633 19
17 186 16 185 18 20 15 810 184 632 19 14 807 631 183 811 21 23 24 22 809
18 15 14 19 17 23 24 20 810 16 185 811 186 22 13 25 21 30 8 807 813
19 23 18 20 22 30 21 24 17 14 25 185 15 31 29 28 174 186 183 6 8
20 185 21 19 17 22 18 183 186 174 184 23 182 30 31 16 15 181 14 24 173
21 22 174 20 31 183 182 19 173 185 30 175 29 181 17 172 18 32 23 184 34
22 30 21 31 19 20 29 174 173 23 32 28 25 18 185 34 183 182 27 17 24
23 25 24 19 30 18 14 6 22 8 28 20 29 15 26 13 7 21 17 31 9
24 14 23 8 25 13 18 6 19 15 9 7 12 813 30 811 28 26 4 17 22
25 6 23 28 24 26 30 8 7 19 29 14 22 44 18 13 37 43 9 5 4
26 28 6 44 43 25 37 7 29 27 5 30 23 42 40 8 24 38 4 46 32
27 37 32 29 33 38 36 28 34 30 43 26 31 40 39 99 35 173 22 25 171
28 29 26 30 25 27 37 6 32 23 43 22 31 44 19 38 33 24 7 36 40
29 30 28 32 27 31 22 37 33 34 25 26 173 23 38 19 36 21 43 6 171
30 29 22 28 31 23 19 25 32 21 27 26 20 173 6 24 37 34 18 174 33
31 173 22 32 21 30 29 174 34 172 27 171 19 28 33 20 175 182 23 183 25
32 29 34 27 33 31 173 30 28 22 36 171 37 35 38 170 172 21 174 99 26
33 36 32 27 34 35 38 99 170 29 171 37 173 31 101 39 28 30 169 97 100
34 171 32 33 173 170 31 172 35 27 29 169 36 174 22 101 30 175 167 99 21
35 170 101 33 99 36 100 34 171 102 169 97 32 103 27 38 104 91 173 172 39
36 38 99 33 27 39 35 37 97 32 40 98 34 101 170 29 55 100 43 28 171
37 27 38 43 40 28 26 29 36 39 33 32 42 41 55 44 30 25 99 6 34
38 39 36 37 40 27 33 99 43 55 98 41 32 29 97 28 35 26 42 54 56
39 38 55 40 98 36 99 41 37 56 97 54 43 27 59 95 33 57 42 49 35
40 39 41 55 38 43 37 42 54 49 98 36 56 27 26 99 57 45 44 28 33
41 49 54 40 55 42 39 43 50 57 56 45 48 53 38 37 98 44 46 52 287
42 45 41 43 49 48 40 44 46 54 47 55 50 26 37 5 39 287 38 53 57
43 37 40 26 42 44 38 41 28 27 39 45 55 6 29 49 46 36 25 5 54
44 5 26 7 6 46 43 42 45 4 3 25 28 37 8 40 48 41 47 2 10
45 48 46 42 47 49 44 287 41 285 5 43 50 2 3 40 54 26 286 288 284
46 45 5 47 44 2 3 48 42 285 4 7 1 43 275 287 49 276 26 284 6
47 285 48 45 287 46 286 2 284 275 42 49 288 50 282 289 290 276 3 5 44
48 47 45 287 49 50 42 46 285 288 41 286 54 2 53 44 284 289 43 40 51
49 50 41 54 48 42 53 45 55 57 287 40 288 47 56 51 43 52 46 39 44
50 49 53 288 287 48 54 51 57 41 52 42 45 47 63 324 55 56 326 286 40
51 63 326 53 324 288 52 50 325 57 327 62 287 54 49 323 64 322 289 329 61
52 57 63 53 58 51 62 61 56 54 59 326 50 64 327 49 55 41 288 66 98
53 57 50 52 51 54 63 49 288 56 41 326 55 58 287 324 48 62 59 61 327
54 57 41 55 49 56 53 50 40 52 39 42 98 59 48 51 58 63 45 43 38
55 39 40 54 41 56 98 57 38 49 59 42 43 53 37 36 97 50 95 99 52
56 59 57 55 54 98 58 52 39 53 95 41 40 94 49 97 61 50 60 38 63
57 52 53 54 56 55 58 59 50 49 63 41 51 98 61 62 39 40 326 288 95
58 61 59 52 60 56 62 57 94 78 77 63 95 53 66 98 54 79 64 96 93
59 56 58 95 98 94 57 60 96 55 52 97 61 54 39 93 78 53 91 79 99
60 78 94 79 93 58 75 61 77 96 59 95 81 80 92 76 74 56 62 66 91
61 58 62 77 66 52 78 60 64 63 59 57 65 94 56 67 76 327 75 79 53
62 64 61 66 63 327 52 58 65 77 326 337 51 67 57 78 53 325 328 60 76
63 51 326 52 62 53 327 64 57 325 61 324 58 50 288 328 54 66 337 56 65
64 62 327 65 66 337 63 326 61 328 325 338 77 67 336 52 51 58 68 340 76
65 66 64 338 337 67 68 340 62 327 336 77 339 70 76 328 61 69 341 326 334
66 65 77 67 62 64 61 76 68 70 78 337 338 327 340 58 75 71 63 60 69
67 68 70 76 66 65 77 69 340 71 338 64 754 755 62 78 75 341 337 72 61
68 69 67 70 340 341 65 338 755 76 66 339 754 481 71 77 342 753 337 72 336
69 341 68 755 340 481 70 67 754 342 753 339 338 76 65 482 480 756 343 72 71
70 67 68 76 754 71 69 755 72 753 66 340 77 65 341 74 75 73 481 752 751
71 74 76 72 75 73 70 754 751 82 67 77 78 81 79 68 752 66 753 83 742
72 73 751 71 754 74 752 70 76 82 753 750 75 755 742 748 743 67 757 68 69
73 751 72 82 74 71 742 743 750 752 754 83 75 76 81 70 748 753 741 85 739
74 71 75 73 82 72 81 76 83 79 78 751 742 70 77 754 60 67 80 743 752
75 74 78 79 71 81 76 77 60 82 73 72 83 93 70 67 80 66 61 94 751
76 71 70 67 77 75 74 66 78 68 72 754 65 73 69 79 61 60 755 751 82
77 78 66 76 61 67 75 60 62 71 65 79 58 70 64 74 68 94 81 72 52
78 60 75 79 77 61 76 94 81 58 74 93 71 66 67 62 80 59 96 70 82
79 81 78 60 75 93 80 94 74 77 96 83 71 92 76 88 82 58 84 61 95
80 88 93 92 81 84 79 89 96 83 90 87 94 60 115 91 75 78 74 116 85
81 79 83 80 75 74 93 82 84 78 60 88 71 73 85 92 742 94 96 87 76
82 73 742 83 74 751 81 72 743 71 85 75 750 739 84 79 741 738 76 752 754
83 82 81 85 84 742 74 73 80 75 86 79 739 87 738 743 88 71 93 118 751
84 87 83 85 80 88 89 86 81 118 117 116 738 92 82 93 703 79 742 119 739
85 86 738 83 739 84 742 703 118 87 82 704 740 119 743 81 117 741 737 80 73
86 703 738 118 85 119 87 84 704 739 117 120 702 83 740 122 742 737 89 116 82
87 84 118 89 117 116 86 88 85 120 119 80 703 83 738 121 115 126 112 92 81
88 89 92 80 90 84 115 93 87 116 96 81 91 117 112 79 114 83 118 94 103
89 88 116 87 115 84 117 92 80 112 90 118 114 126 93 120 86 81 85 121 83
90 92 115 91 88 103 100 114 96 89 80 93 112 97 95 116 101 113 102 94 99
91 90 96 100 97 92 95 103 93 94 115 99 101 88 98 80 114 35 59 102 89
92 90 88 80 93 96 91 115 89 94 95 100 84 103 79 114 81 97 116 87 60
93 80 96 94 79 92 60 81 88 95 91 78 90 75 84 59 89 83 97 58 115
94 96 60 95 93 59 79 58 78 91 92 98 97 80 56 61 81 75 90 88 77
95 96 97 94 98 59 91 93 56 99 60 92 100 58 39 90 55 79 80 36 57
96 95 94 93 91 92 97 90 60 80 59 88 79 98 100 99 115 58 78 81 56
97 99 95 98 91 100 96 36 39 59 94 101 35 38 90 56 55 92 103 33 93
98 39 97 95 56 59 55 99 38 40 36 94 54 96 57 91 41 58 100 52 37
99 36 97 35 100 98 38 39 33 101 91 95 170 27 55 40 37 103 34 96 102
100 101 91 103 97 99 35 90 102 170 95 96 115 114 92 36 98 113 33 169 108
101 35 102 100 170 103 99 169 91 97 104 33 171 36 90 34 114 108 113 115 95
102 101 103 104 170 108 169 100 113 35 114 105 171 168 109 90 115 91 99 106 34
103 102 100 114 101 90 115 113 91 108 112 35 170 104 92 97 99 109 169 88 96
104 105 168 108 169 102 106 170 165 109 113 167 101 171 103 107 149 35 172 166 114
105 106 168 104 165 108 149 107 109 169 164 167 166 102 113 148 150 163 146 162 170
106 105 107 149 109 108 148 104 168 165 146 164 150 147 110 163 113 143 166 169 145
107 146 106 109 148 147 110 149 145 108 105 143 150 113 111 128 144 127 104 168 164
108 109 113 104 102 105 106 107 114 103 110 111 168 169 146 112 101 170 149 115 165
109 108 110 113 107 146 111 106 105 104 127 114 112 147 145 102 148 128 149 103 168
110 146 111 127 109 107 128 145 113 108 147 112 125 126 106 114 148 130 144 129 105
111 127 110 112 126 113 109 114 146 128 125 116 108 107 121 115 145 117 130 103 147
112 114 111 116 115 113 126 89 127 110 117 90 103 109 88 121 108 87 125 92 120
113 114 108 109 112 111 103 110 102 115 104 107 127 146 106 90 105 101 116 100 126
114 115 113 112 103 90 111 108 102 116 109 89 100 110 92 101 88 91 126 127 104
115 114 90 112 89 92 103 88 116 113 91 100 111 80 87 117 102 96 126 108 101
116 117 89 112 87 126 115 121 88 118 120 114 111 84 90 119 92 127 113 80 86
117 116 120 118 87 121 126 119 89 86 122 112 84 703 124 88 115 85 111 125 123
118 86 119 87 117 703 120 85 84 738 116 122 89 121 702 704 126 88 739 124 83
119 120 703 118 122 86 702 117 704 121 701 738 87 124 123 85 116 126 706 84 739
120 119 121 122 117 118 124 126 703 123 87 116 86 702 701 125 132 89 704 738 700
121 124 126 120 117 122 125 123 119 116 132 118 127 111 112 87 130 131 701 128 703
122 120 123 119 701 124 121 702 703 700 118 117 132 699 126 689 86 704 706 125 697
123 124 700 122 132 689 701 121 120 690 699 131 119 702 125 133 126 697 688 130 117
124 121 123 132 122 125 120 126 131 700 689 119 117 130 701 127 128 118 116 702 133
125 127 130 128 126 124 132 121 131 111 110 129 145 123 134 120 146 112 122 117 116
126 121 125 127 111 116 117 112 124 120 110 128 132 122 89 118 130 87 114 119 123
127 111 128 110 125 126 146 145 130 112 109 121 107 113 124 129 147 132 116 131 114
128 145 127 130 125 146 129 110 147 111 144 139 131 126 107 134 132 109 124 121 148
129 130 139 134 128 145 138 144 131 140 125 147 137 142 132 127 146 133 402 143 136
130 129 128 131 125 134 132 145 127 139 138 124 144 133 146 110 126 147 121 111 140
131 132 134 130 133 129 689 125 138 124 123 128 136 688 686 700 139 127 121 690 145
132 131 124 123 689 125 130 133 134 121 700 122 129 126 128 690 120 127 688 138 701
133 686 131 134 136 688 689 138 132 685 135 690 687 130 700 411 129 123 684 124 137
134 138 131 133 129 130 136 132 139 137 140 686 411 689 128 125 688 404 145 135 144
135 685 412 136 686 414 411 413 684 410 688 133 404 683 138 418 415 405 137 134 687
136 686 135 411 133 138 685 134 412 688 404 137 131 414 684 689 413 687 405 129 140
137 404 140 403 138 411 402 139 405 134 406 136 129 401 412 142 407 135 144 410 133
138 134 137 136 411 129 140 139 133 404 131 130 686 135 403 412 402 405 132 144 688
139 140 129 144 142 402 138 145 137 134 130 147 128 143 403 141 131 404 146 401 411
140 402 137 139 403 142 138 404 129 144 401 141 411 134 406 400 405 143 145 130 136
141 142 399 400 151 402 397 143 401 153 144 140 152 396 139 398 150 403 395 147 148
142 141 402 144 140 143 139 400 401 399 151 147 403 137 145 129 148 397 150 406 153
143 148 147 144 151 142 150 141 145 152 146 139 107 399 149 153 163 402 140 106 129
144 147 145 139 143 142 129 148 146 140 128 141 402 130 151 107 150 110 137 138 134
145 147 128 146 144 129 110 139 130 127 107 143 148 125 142 109 111 140 134 106 131
146 110 107 145 147 128 109 127 148 144 111 106 143 108 130 129 113 125 149 139 150
147 145 144 148 143 146 107 128 110 150 139 142 151 129 106 149 109 127 141 130 140
148 147 143 150 107 149 151 146 106 144 145 152 163 142 109 164 110 105 141 128 153
149 106 150 164 163 148 105 107 165 152 162 151 168 143 147 166 146 109 104 108 161
150 151 152 163 148 149 143 164 153 147 106 107 155 399 162 141 144 154 105 142 146
151 152 150 143 153 399 141 148 163 142 154 147 149 144 400 397 155 164 398 107 402
152 151 153 150 163 154 155 399 143 149 164 148 156 141 162 159 398 397 147 142 400
153 154 152 399 151 398 397 150 155 141 163 156 219 400 143 395 220 222 218 142 148
154 153 156 155 152 219 220 398 218 399 151 222 163 157 397 217 159 150 395 216 141
155 156 159 163 154 157 162 158 152 218 164 153 160 150 161 216 220 151 197 195 149
156 155 157 218 154 216 159 220 158 217 197 153 152 219 163 162 195 215 160 227 164
157 156 216 197 218 158 155 159 195 217 215 214 220 154 160 162 198 212 196 194 227
158 159 195 160 157 197 155 162 194 156 161 216 196 218 178 179 164 193 163 166 214
159 158 162 155 160 161 157 156 164 195 163 197 194 166 178 152 218 154 216 165 179
160 161 194 158 195 159 178 162 179 166 176 193 164 155 157 177 197 180 196 165 156
161 160 166 162 178 159 164 165 177 179 194 158 176 195 167 163 155 168 175 149 180
162 161 159 164 160 166 163 155 158 165 178 149 195 194 156 152 150 177 157 179 168
163 164 150 152 149 155 162 151 159 148 153 165 154 161 156 106 166 143 158 105 160
164 163 162 149 165 166 161 159 150 155 152 105 106 168 160 148 178 158 151 167 177
165 166 168 105 164 167 161 149 162 177 106 104 178 163 169 172 160 175 159 176 150
166 165 161 178 177 167 162 164 168 160 176 175 105 179 159 172 149 163 194 158 169
167 177 172 168 166 175 165 169 171 178 176 104 105 161 173 170 174 34 164 179 162
168 165 105 104 167 169 166 106 177 172 171 108 149 164 170 102 161 175 178 162 109
169 170 171 104 168 102 167 172 35 101 34 105 108 165 173 177 33 103 175 166 100
170 35 169 171 101 34 102 33 104 172 100 99 32 36 173 103 168 167 108 27 105
171 34 172 170 169 173 167 35 33 32 31 175 168 101 104 177 102 174 27 36 29
172 171 175 167 173 177 34 174 169 31 170 168 176 182 166 32 21 165 178 104 33
173 31 172 34 174 171 32 21 175 22 29 30 33 167 182 170 177 169 27 20 35
174 21 182 175 173 31 183 172 22 20 176 177 181 185 34 171 167 30 32 19 180
175 177 172 176 174 182 167 173 178 179 171 166 21 183 31 180 181 34 161 168 165
176 179 178 177 175 180 182 194 161 166 167 181 160 174 193 172 183 189 188 195 165
177 175 167 178 176 166 172 161 165 179 168 182 174 171 173 160 180 169 162 194 164
178 161 176 179 177 166 160 194 175 162 167 180 165 195 159 193 158 182 164 172 168
179 176 194 180 178 193 160 161 177 189 195 182 175 181 166 192 158 196 188 162 167
180 189 179 193 181 176 194 188 182 192 178 183 175 160 190 177 195 196 174 187 161
181 188 183 182 180 189 184 185 176 187 179 174 193 21 20 190 192 175 631 186 194
182 183 174 181 175 176 21 180 185 177 179 188 20 173 172 189 184 178 31 22 167
183 182 181 185 184 21 20 174 188 180 186 175 189 17 176 22 19 631 187 179 31
184 186 185 631 183 188 181 17 632 187 16 20 633 182 630 189 21 634 18 810 190
185 20 184 17 186 183 21 181 18 16 19 182 631 632 188 22 174 15 810 187 23
186 17 16 184 632 185 631 810 20 807 18 809 15 183 634 633 187 188 181 19 630
187 630 190 188 631 628 633 184 189 629 627 181 192 632 634 186 625 635 180 638 183
188 181 189 187 184 180 190 183 192 631 182 193 630 185 186 179 627 176 628 633 632
189 180 188 192 193 181 190 179 187 194 183 176 182 191 196 627 184 630 195 628 200
190 627 187 628 192 189 188 630 191 625 626 193 629 181 180 615 633 631 200 184 638
191 201 615 200 627 192 626 190 199 196 614 193 616 628 198 202 625 189 617 187 613
192 193 189 191 190 196 200 180 627 188 194 179 187 201 195 181 615 628 199 198 626
193 192 194 189 180 179 196 195 200 188 160 191 176 190 181 178 158 198 197 161 627
194 179 195 193 160 180 178 158 196 176 161 192 189 159 197 162 166 177 200 157 181
195 194 158 160 196 197 193 159 179 157 161 198 178 200 162 192 180 216 214 155 156
196 200 198 195 193 192 197 194 199 191 201 214 158 189 160 179 180 157 202 615 190
197 157 216 214 195 158 198 196 215 218 156 200 159 194 160 213 217 199 155 204 212
198 199 214 200 196 197 204 201 202 215 213 203 195 191 216 614 157 192 193 615 158
199 201 200 198 202 614 204 203 191 196 214 615 613 213 197 205 617 192 215 616 626
200 199 196 198 201 191 192 202 615 614 214 193 197 195 204 627 203 194 190 613 626
201 614 199 615 202 191 200 613 198 616 617 626 203 196 627 192 204 612 214 205 621
202 203 613 614 199 201 205 204 617 615 198 200 612 206 191 616 611 214 213 196 209
203 205 202 204 206 613 199 209 614 213 612 611 201 198 610 214 210 617 208 200 215
204 213 203 214 202 198 210 206 199 209 215 205 212 613 200 201 208 614 197 216 610
205 203 206 611 613 610 612 202 204 209 208 608 614 617 207 199 210 603 213 609 602
206 209 205 208 610 203 204 210 207 611 250 213 202 613 247 612 211 608 609 252 566
207 252 610 250 208 566 609 251 206 565 209 247 253 567 608 205 611 249 569 248 210
208 209 250 207 206 610 247 252 210 251 211 205 566 609 203 204 213 611 248 253 565
209 208 206 210 213 211 247 250 204 610 205 203 207 212 252 251 215 228 214 611 202
210 209 213 211 212 204 228 208 206 215 247 214 203 250 227 230 205 610 246 217 207
211 247 210 228 230 246 209 212 208 250 248 213 251 227 229 206 215 225 244 252 207
212 227 228 215 217 213 210 216 211 214 226 218 220 230 204 209 225 157 197 247 221
213 215 204 210 214 212 209 203 216 228 206 198 211 227 217 197 199 208 205 202 247
214 215 198 213 204 197 216 199 212 200 157 196 210 203 217 202 218 195 209 201 158
215 213 212 214 216 217 204 210 227 197 228 218 198 157 209 220 211 156 203 199 226
216 157 218 215 217 197 214 156 212 220 227 213 158 198 155 195 228 159 204 154 226
217 218 227 220 216 212 215 226 228 219 156 157 221 213 214 154 197 225 222 210 155
218 217 156 220 216 157 154 227 219 155 215 197 212 226 158 159 214 228 153 222 221
219 222 220 221 398 226 154 223 217 218 395 227 153 156 394 224 397 225 393 399 216
220 219 217 218 226 227 154 156 222 221 216 157 212 398 228 153 215 225 155 223 224
221 223 226 224 222 225 219 232 220 393 231 227 394 398 383 217 395 228 230 233 229
222 219 223 221 398 395 394 393 220 226 224 397 154 232 225 392 396 383 384 217 153
223 393 221 222 224 232 394 383 384 219 395 226 225 231 392 398 233 382 220 396 397
224 232 231 225 221 223 226 233 393 383 222 229 238 230 382 394 219 384 227 234 228
225 224 226 231 221 230 229 228 227 232 223 233 238 222 246 219 220 212 217 240 211
226 221 227 225 220 228 224 217 219 222 223 230 212 231 218 229 232 215 393 216 211
227 228 217 212 226 220 225 215 218 230 221 216 219 211 213 210 224 222 229 214 157
228 227 212 230 211 226 210 225 217 215 213 246 229 247 220 221 209 216 224 218 231
229 230 246 240 231 225 244 238 224 228 233 211 226 239 245 232 248 237 243 234 221
230 229 246 228 225 211 227 226 231 244 247 240 224 212 248 210 221 238 243 217 232
231 224 232 233 238 225 229 240 234 221 230 223 383 239 226 382 235 393 244 246 237
232 224 383 233 231 223 393 382 221 225 384 238 235 234 394 222 229 226 381 392 239
233 232 234 238 231 235 382 383 224 239 379 236 393 240 223 229 225 384 380 381 221
234 239 235 238 236 233 379 382 303 231 237 240 232 306 305 383 380 229 224 378 307
235 234 379 382 233 236 380 306 238 239 383 378 232 381 231 305 307 377 303 384 224
236 234 239 303 305 235 306 237 379 238 300 307 233 299 302 240 304 378 382 308 380
237 303 239 240 302 245 238 241 300 236 244 234 242 301 243 229 260 305 299 233 231
238 234 239 233 240 231 237 229 235 236 232 303 244 224 382 225 245 383 230 379 246
239 234 238 237 236 303 240 233 235 302 300 231 305 245 244 229 379 306 382 241 232
240 244 238 237 229 239 245 231 246 234 303 243 233 230 241 302 236 242 248 225 224
241 242 245 260 302 259 237 243 301 244 254 261 303 258 300 240 262 255 239 248 249
242 241 243 259 245 254 260 244 249 248 255 302 258 237 240 261 253 246 301 251 563
243 242 248 245 244 249 254 241 246 259 251 253 240 247 237 255 229 260 302 250 230
244 245 240 243 246 229 248 242 237 241 230 238 249 239 254 231 302 247 251 303 211
245 241 244 242 243 237 240 302 259 248 254 260 246 303 239 249 229 238 301 300 255
246 230 244 248 229 211 247 243 240 251 245 249 228 225 250 231 242 210 238 254 237
247 250 211 251 208 248 246 209 252 210 249 207 230 253 206 243 228 610 244 566 565
248 249 243 251 246 247 244 254 253 250 242 245 211 252 230 229 240 565 259 208 241
249 253 248 251 254 243 252 565 242 250 247 563 246 259 244 245 255 566 207 567 564
250 252 251 208 247 207 209 253 566 610 248 249 211 565 206 210 609 246 567 243 205
251 250 249 252 253 248 247 207 565 208 243 566 254 246 211 563 209 567 610 244 242
252 250 207 251 566 565 253 208 249 247 567 610 609 248 563 209 564 254 206 211 569
253 565 249 251 252 563 254 250 248 566 567 564 207 243 247 561 255 242 259 208 562
254 249 259 242 243 255 253 563 248 245 241 251 561 565 256 258 244 260 252 564 246
255 256 259 561 254 258 563 257 560 242 559 260 261 564 249 253 241 243 266 565 245
256 560 257 255 561 559 258 259 563 550 549 266 254 564 261 558 555 267 562 260 242
257 256 560 549 266 258 255 550 267 561 559 551 261 548 259 265 555 552 268 563 260
258 261 259 260 255 266 257 256 262 265 241 242 263 254 560 301 549 267 561 302 245
259 242 255 254 258 241 260 243 261 245 256 249 563 561 257 302 253 262 301 248 244
260 261 241 301 262 258 259 302 242 245 263 298 300 255 254 266 237 265 303 243 256
261 262 258 260 263 266 265 301 259 241 298 257 255 264 302 242 256 267 279 300 549
262 261 263 301 260 298 264 265 258 302 266 297 300 241 296 299 280 259 279 295 242
263 264 265 262 261 280 298 279 297 301 266 260 296 258 268 281 283 278 267 277 299
264 263 280 297 265 298 262 281 279 296 283 282 277 301 261 292 278 295 266 290 299
265 263 266 279 264 261 268 262 267 280 258 278 269 260 297 298 277 549 257 301 283
266 267 265 257 258 549 261 268 263 548 256 262 279 560 260 255 551 544 264 269 259
267 268 548 549 266 544 265 551 257 547 269 279 270 258 278 261 550 560 263 552 256
268 269 267 279 544 278 548 265 270 266 549 273 547 274 277 263 551 280 546 543 264
269 270 278 268 273 274 279 544 277 267 271 543 548 272 265 276 546 280 547 266 283
270 269 273 543 544 271 268 274 278 546 272 826 548 542 279 547 267 545 277 541 276
271 272 826 273 543 270 0 542 825 274 1 269 546 824 276 278 540 544 11 10 815
272 271 273 1 0 274 276 826 270 10 3 825 269 543 278 2 277 4 542 11 275
273 274 270 271 272 269 278 543 276 826 1 277 268 0 544 279 542 546 275 2 825
274 273 276 278 277 269 272 275 270 1 271 279 2 283 268 280 284 0 543 3 826
275 276 284 2 277 283 285 282 274 278 47 280 286 1 290 46 279 281 3 273 272
276 275 274 2 277 1 278 272 273 284 283 3 285 269 279 271 282 280 46 270 47
277 278 283 274 275 276 280 279 284 269 282 273 2 264 268 281 285 270 265 272 1
278 279 277 269 274 268 273 280 276 270 283 275 265 272 264 544 267 271 263 284 2
279 278 280 265 277 268 269 264 263 283 274 267 266 270 273 276 275 297 262 282 544
280 283 264 279 277 297 281 263 282 278 265 284 275 296 290 274 298 262 292 276 269
281 282 297 292 290 291 283 296 280 264 284 286 289 293 295 298 277 275 285 263 320
282 284 281 283 290 286 280 285 275 291 297 292 277 289 264 296 47 276 2 287 279
283 280 282 277 284 275 281 264 279 278 297 290 276 285 274 286 2 292 263 291 296
284 282 285 275 283 286 290 2 277 47 281 276 280 289 287 291 274 48 297 278 292
285 47 284 286 275 2 287 282 48 290 46 283 45 289 276 288 277 281 291 50 3
286 290 289 285 284 287 282 47 291 288 281 48 323 283 275 292 2 324 50 45 320
287 288 48 47 286 50 285 289 49 45 290 324 284 51 53 323 46 42 282 291 41
288 287 50 324 51 289 323 286 53 48 49 47 326 63 285 322 290 291 54 325 57
289 290 286 291 323 288 287 320 324 282 292 322 293 281 285 284 47 48 321 50 51
290 291 282 286 289 281 292 284 285 283 297 293 323 287 320 296 280 275 288 47 264
291 292 290 289 293 281 320 323 286 282 296 297 294 295 322 284 319 283 324 321 285
292 291 281 293 296 297 290 295 320 294 282 289 298 264 286 304 299 323 283 280 319
293 320 294 292 291 319 295 296 318 323 304 321 290 289 281 322 297 315 316 299 282
294 318 293 304 295 319 320 316 292 296 299 307 305 291 315 317 321 297 298 308 300
295 296 299 304 294 292 298 293 318 297 305 300 281 291 301 307 320 319 264 303 316
296 297 295 292 298 281 299 264 293 294 291 304 301 300 263 280 290 262 282 320 283
297 296 281 264 292 298 280 263 282 295 283 290 291 262 299 293 301 279 265 284 277
298 301 296 299 262 297 300 295 264 263 302 260 261 292 304 281 280 303 265 305 294
299 300 295 304 298 305 296 301 303 302 294 318 297 236 307 262 292 293 237 239 264
300 299 303 302 301 298 305 237 236 295 304 239 241 262 260 296 245 307 234 294 240
301 262 298 302 260 300 261 299 241 263 303 296 264 237 258 295 297 245 259 242 265
302 300 301 303 241 237 260 245 299 298 262 239 242 240 236 261 259 244 305 243 238
303 237 300 239 302 236 305 299 234 240 301 238 241 245 304 298 235 260 244 307 306
304 318 305 294 295 299 307 300 316 296 293 306 319 236 298 303 292 308 320 317 297
305 304 307 236 299 306 318 300 303 295 294 308 239 379 234 316 378 235 302 237 298
306 307 378 379 308 305 236 235 380 309 318 234 377 304 316 382 239 303 311 310 233
307 306 305 318 308 304 316 378 236 379 294 309 299 317 295 311 235 319 303 300 234
308 309 378 307 306 316 311 310 318 379 317 377 305 380 304 375 312 313 235 236 294
309 310 308 378 377 311 375 306 374 380 354 376 379 316 307 313 317 371 312 318 386
310 309 311 354 313 374 375 308 377 312 317 378 351 316 371 352 353 376 306 307 380
311 310 317 313 312 316 309 308 354 351 315 314 318 378 307 319 374 375 330 353 306
312 317 314 313 311 315 351 330 332 316 310 331 354 319 321 353 335 329 308 333 309
313 351 312 354 311 310 353 314 317 332 352 309 374 315 348 316 350 330 308 333 375
314 332 312 330 331 351 315 313 335 317 333 321 329 311 350 319 334 353 328 316 354
315 330 321 319 317 312 314 316 329 331 320 322 311 318 294 313 332 293 351 323 335
316 317 318 319 308 311 307 315 294 312 304 309 306 310 321 305 313 330 293 378 320
317 316 312 315 311 319 313 314 330 318 321 308 310 351 309 294 307 354 331 332 320
318 304 294 316 307 319 305 308 295 317 293 306 299 315 311 320 378 321 296 309 292
319 315 321 320 294 316 317 293 318 330 322 312 329 304 323 314 311 291 295 292 307
320 293 319 323 322 321 291 294 292 289 315 329 290 324 330 318 295 316 317 296 281
321 315 330 322 329 319 320 331 323 317 314 293 312 324 325 316 294 328 318 291 332
322 323 329 321 320 324 330 325 319 315 289 331 293 326 291 288 328 51 314 327 294
323 322 324 289 320 291 288 321 329 293 290 286 325 319 287 51 292 326 330 315 294
324 323 322 288 51 326 325 329 289 63 321 320 287 327 50 53 328 286 291 330 331
325 326 328 327 329 324 322 331 63 51 337 64 335 330 321 323 336 62 288 65 52
326 327 325 63 51 324 64 328 62 52 329 53 337 322 288 323 65 61 50 331 57
327 326 64 325 328 337 63 62 65 51 336 66 338 324 329 52 331 335 61 322 53
328 325 337 327 335 336 331 329 326 64 334 338 330 65 332 333 322 63 324 314 321
329 322 321 330 331 325 328 315 324 323 314 335 320 326 319 327 332 312 317 337 51
330 315 331 321 329 314 312 322 317 319 332 335 328 325 320 316 313 351 311 333 323
331 330 335 329 314 332 328 321 325 315 333 312 334 322 336 337 327 351 317 319 326
332 314 333 335 331 351 350 334 330 312 345 313 336 328 353 315 348 344 329 317 321
333 332 350 345 334 335 344 336 314 351 331 346 349 348 339 353 343 328 330 312 313
334 336 344 333 335 345 339 332 338 337 350 328 343 346 331 340 314 342 349 65 341
335 331 332 334 333 336 328 314 330 337 345 344 329 350 325 338 339 351 327 312 321
336 334 337 338 335 328 339 344 333 340 65 345 331 327 332 64 325 343 68 350 341
337 336 338 328 65 327 64 334 335 339 325 340 66 326 62 344 331 68 67 63 333
338 340 336 337 339 65 334 68 344 341 67 64 328 69 66 335 327 342 343 345 70
339 344 340 338 343 341 336 342 334 345 337 69 68 346 65 333 335 480 481 67 479
340 339 338 341 68 69 342 65 67 336 344 337 70 343 755 481 334 66 480 64 76
341 69 342 340 481 339 68 755 343 480 338 344 482 70 67 483 753 479 754 346 65
342 343 341 480 339 479 481 340 344 346 69 483 477 482 755 338 345 68 478 334 486
343 346 342 344 339 479 477 345 480 341 334 340 349 476 338 333 478 336 481 350 483
344 345 339 334 343 346 336 333 342 338 340 350 335 341 477 349 337 332 479 480 328
345 344 333 350 346 334 349 343 339 332 335 336 477 348 342 347 338 351 476 479 353
346 343 477 345 344 349 479 476 342 350 339 333 334 480 347 475 348 478 473 341 336
347 357 348 349 475 356 465 476 353 350 464 352 474 355 477 346 345 358 466 351 473
348 353 347 350 349 352 356 351 357 475 345 333 354 313 332 346 355 476 373 465 477
349 347 348 350 346 476 345 475 477 357 333 353 343 474 344 356 465 479 473 351 334
350 333 345 348 349 332 351 353 334 346 347 344 335 314 313 352 343 477 336 475 356
351 313 353 332 354 314 312 350 348 352 333 311 310 317 335 330 331 345 349 347 356
352 353 356 354 373 348 355 374 351 347 313 357 359 372 371 310 358 350 349 375 464
353 352 348 351 354 313 356 350 347 349 373 374 355 332 333 357 310 312 314 311 345
354 313 310 352 353 374 351 311 375 312 309 373 348 371 356 317 314 355 372 350 308
355 373 358 356 359 352 464 357 372 360 460 347 463 353 374 371 348 465 365 361 475
356 355 352 357 347 373 358 348 464 353 359 475 465 349 354 372 374 463 460 351 360
357 464 465 475 347 356 355 358 474 466 348 349 476 463 352 373 353 359 460 473 477
358 355 464 460 359 463 356 360 357 373 361 465 372 462 466 352 347 364 467 461 475
359 360 373 355 372 358 365 460 364 356 371 361 352 367 374 464 369 370 463 357 363
360 359 364 361 460 365 372 358 355 367 373 362 363 458 369 371 459 463 464 366 461
361 460 360 458 364 362 459 461 359 358 363 416 462 463 456 367 409 365 417 355 372
362 459 416 409 363 364 361 458 417 360 415 367 408 366 410 460 456 365 461 419 421
363 409 366 367 364 408 362 365 369 368 416 360 361 459 407 410 415 372 405 359 458
364 360 363 367 362 361 365 366 409 359 369 372 459 460 408 458 416 368 358 373 370
365 372 369 367 370 371 364 360 359 366 363 373 368 387 374 376 375 361 355 362 408
366 367 368 408 363 369 407 409 364 365 389 388 362 387 370 405 410 406 360 372 390
367 369 366 365 363 364 368 408 360 372 370 409 362 359 371 387 361 407 388 389 373
368 366 388 369 389 367 407 387 408 363 370 365 391 390 406 385 386 364 409 376 405
369 367 365 370 368 366 387 372 371 363 364 376 388 408 386 360 375 359 389 407 374
370 371 376 369 387 365 375 372 386 374 367 368 377 366 388 373 385 359 381 364 360
371 370 372 374 375 365 376 373 369 359 387 367 377 354 352 310 355 360 386 309 364
372 365 371 359 373 360 370 374 369 355 367 364 375 358 352 376 356 361 387 363 460
373 355 359 372 352 356 374 371 358 360 365 354 353 375 370 357 464 460 348 364 347
374 371 375 354 373 310 372 352 370 376 309 377 359 353 365 313 355 311 356 369 351
375 374 376 371 377 370 309 310 354 372 386 387 378 380 373 369 365 308 311 381 352
376 370 375 386 377 387 371 381 380 374 369 385 309 378 365 372 310 388 368 379 367
377 380 376 378 375 309 386 381 379 308 310 370 387 306 374 371 382 385 235 311 307
378 379 306 308 309 380 377 307 235 310 381 382 375 376 236 305 311 316 386 234 318
379 235 378 306 380 382 234 236 377 308 307 381 233 309 305 383 239 238 386 232 376
380 381 377 379 378 382 386 235 376 306 309 383 385 384 375 308 387 233 234 232 307
381 386 380 385 384 382 383 377 376 387 379 392 393 235 378 391 232 233 394 388 375
382 383 235 233 381 380 379 232 384 234 393 378 386 231 238 385 224 377 223 306 236
383 393 232 382 384 233 223 381 224 394 392 235 231 385 380 221 234 379 386 222 238
384 393 392 383 385 381 394 382 391 386 223 232 395 380 396 233 387 224 388 222 235
385 386 384 392 391 381 387 388 393 394 383 376 390 380 389 396 382 368 370 377 395
386 381 387 385 376 380 377 370 384 388 391 392 375 382 369 383 368 371 378 379 393
387 386 370 376 385 388 369 368 381 391 371 377 375 365 367 389 366 380 392 384 372
388 389 368 391 390 387 385 407 386 366 392 369 406 396 370 367 408 384 376 401 381
389 388 390 407 406 368 391 401 366 408 403 396 405 385 387 392 369 400 367 404 402
390 389 391 396 406 401 388 400 392 407 397 403 395 385 368 394 402 384 387 141 405
391 392 390 388 385 396 389 384 394 395 387 386 393 368 406 401 381 397 400 407 383
392 394 391 384 385 393 396 395 390 383 381 388 223 386 397 222 389 398 387 382 232
393 394 383 223 384 392 232 222 224 395 221 382 385 381 233 391 396 398 231 219 225
394 393 392 395 384 223 396 222 398 391 383 397 385 221 232 390 219 224 400 381 382
395 397 394 398 396 222 392 400 393 399 223 391 219 390 384 221 401 153 141 385 383
396 395 397 390 391 400 392 394 401 398 399 389 384 388 393 406 385 141 222 223 402
397 395 400 398 399 396 141 394 401 153 222 390 392 391 219 154 151 142 402 393 223
398 395 397 222 219 399 153 394 154 396 400 223 220 221 393 141 392 152 151 226 391
399 141 397 153 400 151 398 152 395 142 154 396 401 143 402 150 219 222 394 390 144
400 397 401 141 399 396 402 395 390 142 398 406 403 153 391 151 394 140 389 392 143
401 400 402 406 403 390 396 141 389 142 397 140 399 137 391 407 404 395 405 388 139
402 140 403 142 401 137 141 139 400 406 404 144 390 138 399 143 405 129 397 396 411
403 406 402 137 404 401 140 405 407 411 389 390 142 400 139 138 141 412 408 396 410
404 137 411 405 403 412 140 138 406 402 410 407 136 135 401 139 408 134 389 414 686
405 404 407 410 403 412 411 406 408 137 389 409 366 140 401 402 135 415 368 414 363
406 403 389 407 401 390 405 402 404 388 137 400 391 396 368 408 140 366 411 141 142
407 389 406 408 405 368 366 388 403 390 404 410 363 401 409 367 391 369 137 412 402
408 366 409 363 407 410 368 405 367 362 389 364 369 406 415 416 388 404 412 365 403
409 363 362 408 416 410 415 366 364 459 367 407 405 417 361 368 418 412 414 360 458
410 412 415 405 409 408 414 411 404 416 418 135 407 363 362 413 366 417 403 419 137
411 404 412 136 137 135 138 405 410 686 403 140 134 685 414 133 402 406 139 407 413
412 411 135 410 414 404 405 136 415 685 413 686 137 418 138 409 408 403 407 133 416
413 414 418 424 683 685 135 684 415 425 412 419 680 686 423 682 410 420 136 411 422
414 413 418 415 135 412 410 424 685 419 683 411 416 684 686 136 417 409 405 425 420
415 418 416 414 410 409 419 417 413 412 362 424 459 408 135 363 421 420 405 685 411
416 459 417 362 415 409 419 418 458 421 363 410 361 456 364 414 408 420 424 461 366
417 416 421 419 459 456 420 415 458 418 362 424 409 457 461 361 439 455 422 414 410
418 424 419 415 414 413 417 420 416 410 421 423 683 412 135 422 459 425 685 409 362
419 420 417 418 421 424 415 416 422 459 423 414 456 413 439 427 362 458 425 455 409
420 419 422 421 424 439 423 417 418 427 438 437 456 455 416 425 440 415 459 426 413
421 417 420 456 419 439 455 459 457 422 416 458 418 424 454 440 438 461 415 423 362
422 423 427 420 437 438 439 424 426 419 421 425 428 436 429 440 455 418 417 442 679
423 427 422 425 426 424 420 437 679 680 683 419 429 430 418 438 428 413 439 421 681
424 418 419 413 423 420 425 414 683 422 415 427 417 421 680 426 684 685 416 679 437
425 680 423 679 683 426 424 427 681 430 682 422 413 684 429 676 420 693 418 437 419
426 427 430 429 423 425 679 437 428 422 680 681 431 678 676 683 433 424 438 420 436
427 423 437 426 422 429 428 425 438 430 420 436 679 424 439 433 680 431 419 435 683
428 429 433 437 436 427 435 426 431 434 438 430 432 422 423 597 443 442 593 439 679
429 428 430 426 431 433 427 437 432 678 679 423 436 434 425 422 435 668 597 676 438
430 429 426 678 679 431 676 681 427 425 428 668 677 680 433 423 432 437 671 693 667
431 432 429 433 430 678 667 668 428 597 426 434 665 676 666 677 671 679 596 427 437
432 597 667 433 431 434 596 666 429 598 668 428 594 665 593 678 430 599 435 664 663
433 432 434 428 431 597 429 435 667 593 436 430 596 437 594 426 427 678 668 443 666
434 593 597 433 435 432 594 596 428 592 591 443 436 431 429 595 667 599 598 437 585
435 436 443 434 593 428 592 442 433 444 437 438 445 591 597 429 432 440 584 594 427
436 435 438 442 437 428 443 440 445 439 427 433 434 444 422 429 441 593 592 455 426
437 427 438 428 436 422 429 423 426 439 435 442 420 440 433 430 443 425 455 434 431
438 437 436 439 442 440 422 427 455 428 435 441 420 445 443 423 421 429 426 444 454
439 455 438 440 420 421 422 437 442 441 436 454 456 457 427 419 423 417 445 451 428
440 441 455 442 439 438 445 454 436 450 451 437 443 457 444 421 446 422 456 420 435
441 440 450 445 442 455 451 446 454 448 439 444 438 443 449 436 452 457 435 581 453
442 445 440 436 441 438 443 444 435 439 437 455 446 450 428 592 454 422 448 451 584
443 444 435 445 442 592 436 593 584 434 438 441 581 591 446 440 428 437 433 585 583
444 445 443 584 581 446 592 442 435 441 436 583 593 580 448 450 440 591 447 585 582
445 444 442 441 443 446 440 450 436 581 448 435 438 584 592 455 439 451 447 454 449
446 448 445 450 447 444 581 441 510 449 584 442 580 579 443 451 440 509 511 582 513
447 579 510 446 448 513 580 581 511 512 509 449 515 514 450 578 582 444 584 445 500
448 450 446 449 510 447 509 441 451 445 511 452 581 444 579 454 468 440 508 513 512
449 509 448 450 452 510 451 468 508 511 446 447 441 454 507 469 453 505 512 445 513
450 448 441 451 449 446 445 454 452 440 510 455 509 442 447 444 468 453 457 581 439
451 454 452 450 453 449 441 457 448 455 468 440 509 446 467 462 461 445 456 439 469
452 468 451 453 449 454 467 469 450 509 457 462 508 448 441 461 455 505 470 510 466
453 462 452 457 467 454 461 451 468 463 456 455 469 458 450 466 449 460 441 440 470
454 457 451 455 453 452 440 441 456 450 461 439 462 421 449 468 467 458 448 442 445
455 439 440 454 457 456 441 421 451 438 442 420 450 453 461 445 422 417 452 436 437
456 457 421 458 461 417 459 455 454 439 453 420 419 416 462 361 440 362 451 460 422
457 454 456 461 453 455 458 462 451 421 452 439 440 467 459 417 441 463 450 460 361
458 461 459 361 456 460 457 417 362 462 416 421 360 364 453 463 454 455 419 358 409
459 416 458 417 362 361 456 421 409 461 419 364 415 363 457 460 360 418 420 462 410
460 361 358 463 360 462 461 458 359 464 355 364 467 459 362 466 373 453 357 457 356
461 462 458 457 453 456 460 463 361 467 454 459 421 455 417 452 451 358 362 360 464
462 461 467 463 453 460 457 458 466 452 464 454 456 361 358 468 451 469 465 459 360
463 462 464 467 460 466 358 461 465 453 357 361 355 458 474 360 470 469 475 359 356
464 357 465 358 463 466 355 356 475 460 347 474 467 462 359 373 360 470 476 352 348
465 475 474 466 357 464 347 476 463 470 473 358 467 356 349 355 469 462 477 348 460
466 465 467 463 464 474 470 469 357 475 462 473 358 468 476 453 460 347 471 452 356
467 462 463 466 453 469 468 452 461 470 464 465 460 457 451 454 474 358 458 357 505
468 452 469 508 449 467 453 505 451 509 470 462 466 450 454 448 471 506 504 507 511
469 468 470 505 467 508 452 466 471 504 453 474 509 506 449 462 465 463 472 473 451
470 469 471 466 474 473 505 472 465 467 468 504 475 476 508 463 464 487 452 506 357
471 504 472 505 470 487 488 473 469 506 503 478 508 474 489 468 466 476 507 486 465
472 473 471 478 487 470 504 474 488 486 476 479 477 505 469 485 475 483 480 465 503
473 472 474 476 478 470 477 471 475 479 465 487 466 349 486 346 469 504 357 347 505
474 465 475 473 476 466 470 357 472 464 347 477 471 349 469 478 463 467 479 346 356
475 465 474 357 476 347 349 464 473 466 477 356 348 470 346 463 358 355 472 350 479
476 477 475 474 473 349 346 465 347 479 478 357 472 343 470 466 348 345 464 350 471
477 476 346 479 343 349 473 478 475 480 474 345 342 347 344 472 350 465 486 348 483
478 479 486 472 473 480 487 483 477 476 471 485 474 343 342 484 346 488 482 470 504
479 480 477 478 343 342 346 483 486 476 473 472 341 482 344 349 481 345 474 339 487
480 479 483 342 482 486 343 481 478 341 477 346 484 69 339 755 344 340 472 476 473
481 755 482 341 69 753 480 342 483 756 754 340 68 484 70 343 479 339 486 757 759
482 483 481 484 756 480 759 486 755 753 342 341 758 69 479 757 478 490 485 754 760
483 486 482 480 484 478 481 479 342 759 485 756 341 487 343 755 490 472 477 69 753
484 759 483 482 486 490 485 760 756 758 480 491 481 487 478 763 761 757 479 753 488
485 491 484 490 487 486 489 488 759 493 483 494 760 478 761 482 472 503 504 492 471
486 483 478 484 485 480 487 482 479 472 759 488 490 473 481 342 477 491 471 489 343
487 488 472 471 485 504 486 478 489 503 473 505 506 483 484 491 470 479 493 480 490
488 487 489 504 503 471 506 485 472 505 491 502 493 486 497 478 507 508 473 470 501
489 488 503 493 497 491 485 487 502 504 506 492 494 471 498 499 507 505 501 490 472
490 760 759 761 491 484 485 494 763 758 773 493 762 486 482 483 489 756 492 772 487
491 493 494 490 485 489 492 761 760 773 497 488 484 759 495 487 496 503 486 502 498
492 496 493 494 497 495 498 529 491 528 773 489 502 774 761 530 499 525 526 490 485
493 492 491 494 497 489 496 485 498 502 495 490 773 488 503 761 529 499 528 487 760
494 491 493 492 773 761 495 490 496 760 497 485 529 772 489 774 498 771 762 759 763
495 774 529 773 496 492 494 771 772 775 530 776 493 761 491 528 770 785 498 497 527
496 492 529 528 498 495 497 530 493 494 774 526 527 525 776 773 491 499 502 533 775
497 498 502 493 492 499 489 496 503 525 528 501 494 491 526 488 506 529 500 507 495
498 497 525 528 496 499 526 502 492 493 522 529 533 527 501 524 500 489 530 494 503
499 502 525 501 500 498 497 524 526 522 512 507 503 528 506 523 511 489 514 496 513
500 512 501 524 499 513 514 511 525 507 502 523 522 510 579 515 498 506 509 526 447
501 500 507 499 512 502 511 506 503 524 513 525 497 509 508 510 514 498 504 505 489
502 499 497 501 503 498 489 507 506 525 500 493 488 492 512 504 524 526 511 496 528
503 506 489 488 504 502 507 505 497 501 487 471 508 499 493 485 498 491 511 472 500
504 505 471 506 488 503 487 508 489 472 507 470 469 502 473 501 468 509 485 478 497
505 504 508 506 471 469 470 507 468 503 488 509 472 487 511 452 449 501 489 473 502
506 503 507 504 505 508 501 488 502 471 489 511 509 499 469 512 487 497 500 468 470
507 506 501 511 508 509 512 503 505 502 500 504 499 510 513 449 488 489 468 497 471
508 505 509 507 506 468 469 511 449 504 452 510 503 471 501 470 512 448 451 488 502
509 511 449 508 510 507 448 468 512 452 447 505 506 450 501 513 451 469 446 500 504
510 511 447 509 448 449 512 513 579 446 450 507 508 500 501 514 580 581 515 451 452
511 512 510 509 507 501 513 508 500 447 449 448 506 579 514 505 499 502 468 524 446
512 500 513 511 501 510 507 514 524 509 447 579 499 515 502 508 506 523 449 448 525
513 512 514 579 500 447 515 511 510 524 501 580 523 578 509 518 507 516 448 499 581
514 513 515 524 523 500 518 579 512 516 578 447 511 580 501 522 517 510 521 499 519
515 578 516 514 579 518 513 580 575 517 523 582 447 524 577 512 500 581 510 519 557
516 575 578 518 515 517 577 514 557 580 582 574 579 576 523 519 513 572 556 524 586
517 518 557 575 516 574 519 556 515 578 558 523 555 573 520 514 576 572 521 554 577
518 517 516 515 523 575 514 519 578 557 524 521 556 574 513 579 520 522 580 577 500
519 520 556 521 517 523 518 554 557 553 534 522 555 516 575 524 552 533 574 558 535
520 553 519 554 521 534 556 535 552 536 523 533 555 522 557 532 517 518 550 551 545
521 522 523 519 520 534 533 524 526 518 525 553 556 532 554 517 514 535 527 528 500
522 521 526 525 533 524 523 534 528 499 498 500 519 520 527 514 532 518 501 502 497
523 524 521 522 518 514 519 500 525 515 517 520 513 533 526 516 534 499 512 556 557
524 523 500 522 514 525 499 521 513 512 501 526 518 515 533 519 498 502 511 579 516
525 526 499 522 498 524 528 533 500 502 497 523 501 521 496 527 512 492 514 534 529
526 525 528 533 522 498 527 499 521 524 496 534 532 523 497 530 529 502 500 492 531
527 528 532 533 530 531 526 529 534 496 776 522 498 538 525 777 537 521 535 774 495
528 526 527 498 496 533 525 529 530 522 492 497 532 499 531 495 534 776 521 502 774
529 496 530 495 774 776 528 492 527 775 498 773 494 771 531 526 493 497 772 777 779
530 776 529 527 531 774 528 496 777 495 775 532 779 526 533 492 538 498 778 771 785
531 538 777 527 530 532 778 776 537 539 779 529 533 528 534 823 535 822 774 540 526
532 534 527 533 537 531 535 538 526 553 528 530 521 520 522 541 539 777 536 778 545
533 526 534 522 527 532 521 528 525 520 523 498 535 524 531 530 553 519 496 537 499
534 532 533 535 520 521 553 522 527 537 526 519 554 536 523 528 531 538 556 525 552
535 553 536 537 534 545 532 520 541 554 552 547 538 546 533 551 521 519 540 527 531
536 545 552 547 553 535 551 554 548 546 541 520 537 544 550 534 549 555 556 532 267
537 541 538 535 532 545 540 539 546 531 536 534 553 778 542 547 527 823 543 533 777
538 539 537 778 531 540 777 532 541 823 535 527 542 822 824 530 545 534 776 546 821
539 823 778 538 540 824 537 541 542 821 777 822 531 546 826 543 532 820 819 780 815
540 542 539 541 824 823 543 546 538 537 826 778 545 821 825 271 535 815 270 544 531
541 546 545 540 537 542 543 535 538 539 547 536 544 826 824 823 532 553 270 778 548
542 540 826 543 824 546 541 271 539 825 823 270 545 821 537 273 815 538 0 544 272
543 542 546 826 270 271 540 541 544 273 545 269 272 547 824 825 548 539 0 537 268
544 548 547 546 270 268 545 269 267 543 551 549 536 541 273 278 542 271 552 266 279
545 547 546 536 541 535 544 551 537 548 552 553 543 540 542 270 554 549 538 267 534
546 541 545 543 544 547 542 540 270 536 548 537 826 551 535 271 269 539 273 268 538
547 548 551 545 544 536 546 552 549 541 267 535 553 543 268 270 554 550 537 269 540
548 547 544 551 267 549 268 545 536 552 546 266 270 269 257 550 543 541 265 560 554
549 267 548 551 257 266 550 560 547 552 256 544 268 536 555 258 265 559 545 554 255
550 555 560 552 559 551 549 554 558 257 556 256 536 548 561 573 557 547 553 267 520
551 547 548 552 549 536 550 545 544 267 554 553 555 257 546 560 535 268 266 541 520
552 554 551 536 550 553 555 547 556 549 520 548 545 535 560 558 519 544 257 559 557
553 520 535 554 536 552 534 556 519 545 551 521 547 537 532 555 550 533 541 557 546
554 552 553 556 520 555 536 519 550 551 535 557 558 534 547 521 517 545 549 560 559
555 550 558 556 554 552 557 559 560 573 574 551 519 520 553 517 549 536 257 561 562
556 557 554 519 555 520 517 558 553 552 574 550 518 521 575 573 523 536 559 516 534
557 517 574 556 558 575 555 573 519 518 516 554 572 520 559 550 576 562 552 523 578
558 573 555 559 557 574 556 550 562 560 572 517 554 561 575 564 552 519 256 568 576
559 560 561 558 573 550 256 562 555 564 563 257 255 574 557 549 572 556 552 554 567
560 256 559 257 550 561 549 555 255 558 551 573 258 552 563 266 564 562 267 554 548
561 563 559 256 564 255 560 562 257 573 254 558 565 253 259 567 550 258 555 249 549
562 573 564 572 568 567 559 558 561 563 574 565 576 569 557 560 555 566 571 253 256
563 564 561 565 253 255 567 254 562 249 559 256 252 259 560 566 251 573 242 243 248
564 562 563 567 561 565 573 559 253 568 572 566 558 255 256 560 252 254 569 574 249
565 253 567 566 252 563 564 251 249 207 250 562 609 254 561 569 568 248 208 247 610
566 252 207 609 565 567 253 569 610 250 251 208 564 608 563 568 249 562 570 247 607
567 565 564 566 562 568 563 569 253 252 609 207 572 561 573 251 570 249 250 559 571
568 572 569 571 576 562 567 570 573 564 574 587 586 566 565 609 606 577 575 607 558
569 570 568 609 607 567 571 566 606 608 587 572 565 576 562 564 207 586 610 252 605
570 569 606 571 587 607 568 586 590 609 589 576 608 605 572 588 567 566 603 577 585
571 587 586 576 570 568 572 569 577 606 590 607 583 589 585 582 575 574 562 567 573
572 568 576 574 573 562 571 575 558 557 577 564 569 586 567 570 517 587 559 516 578
573 562 558 574 572 559 557 564 568 555 561 576 575 560 567 556 517 550 563 256 571
574 557 573 575 572 558 517 576 562 556 516 555 568 559 518 577 519 571 564 578 550
575 516 517 574 557 518 576 578 577 572 515 573 556 558 582 519 586 571 580 568 514
576 572 571 577 586 568 575 574 587 570 516 573 578 582 562 569 517 557 583 590 558
577 582 586 576 578 583 575 571 516 580 587 572 585 590 584 515 574 581 517 568 579
578 516 515 580 582 577 579 575 518 514 517 581 583 576 513 447 586 584 574 557 523
579 447 580 513 515 578 514 510 581 582 512 516 446 511 448 518 500 584 577 524 509
580 582 581 579 578 447 515 584 583 577 516 446 513 444 514 510 586 575 585 518 448
581 584 580 444 582 446 583 447 579 445 592 578 443 448 585 577 510 515 591 450 441
582 580 583 577 578 581 584 586 579 585 516 515 576 575 447 590 592 444 587 571 591
583 582 584 585 586 577 581 590 580 592 591 587 578 444 595 571 593 576 443 589 579
584 581 583 592 444 582 585 580 443 591 446 445 593 577 586 590 578 579 447 435 595
585 591 590 583 595 592 584 586 593 587 589 582 594 577 581 606 444 571 443 434 580
586 587 571 577 590 576 583 585 582 570 606 572 568 589 578 584 595 591 575 580 569
587 586 571 590 606 570 589 585 576 577 569 607 583 568 595 588 572 605 591 582 584
588 605 589 600 604 599 606 595 607 603 590 594 601 662 596 587 598 663 602 570 591
589 588 595 590 606 605 587 599 600 594 585 591 607 604 570 586 596 571 593 603 583
590 585 587 589 595 586 606 591 583 571 570 588 594 592 577 584 593 582 605 607 599
591 585 593 592 595 594 590 583 434 584 589 443 597 435 596 599 444 586 587 588 581
592 591 593 584 443 585 444 435 583 434 595 581 594 445 590 436 442 597 582 433 446
593 591 434 592 594 435 597 595 443 585 596 433 584 444 432 436 599 590 583 428 589
594 596 595 599 597 593 591 434 598 589 600 588 592 585 432 590 433 667 663 666 435
595 594 591 589 590 585 599 593 588 596 592 600 606 587 597 434 583 605 598 586 584
596 597 594 598 599 432 666 667 434 663 595 600 593 433 591 588 589 664 431 660 665
597 596 432 434 594 433 667 593 598 599 431 666 591 595 435 428 429 592 663 600 665
598 596 663 666 599 667 600 597 664 594 660 432 662 665 661 658 588 595 434 604 433
599 596 600 594 598 588 663 595 589 597 604 666 662 605 591 593 667 660 434 432 590
600 599 588 604 662 663 598 605 601 589 596 594 595 661 619 660 603 602 666 606 618
601 602 619 604 618 662 603 600 661 605 621 620 588 612 617 663 657 622 660 616 599
602 618 601 603 612 604 617 619 621 611 605 662 613 608 616 620 600 614 588 661 607
603 605 602 608 604 611 607 612 601 588 618 606 609 617 600 613 619 205 662 610 589
604 605 601 600 588 603 662 602 619 618 599 589 607 663 661 606 612 608 598 611 595
605 604 588 603 607 606 589 600 601 602 608 570 662 599 611 595 590 587 612 618 619
606 570 607 587 589 605 590 588 571 569 586 595 608 603 604 585 609 568 600 576 599
607 606 608 570 605 603 569 609 588 589 587 604 611 571 590 602 610 566 568 612 600
608 611 609 607 603 610 605 612 569 205 207 570 606 566 602 604 206 613 588 208 601
609 566 608 610 569 207 607 567 252 611 570 565 208 603 250 568 206 606 205 253 605
610 207 206 208 609 205 611 608 566 209 250 252 203 612 247 603 251 607 613 210 565
611 612 608 205 603 610 613 602 206 609 203 617 607 202 207 605 208 618 614 601 604
612 613 611 617 602 205 603 618 614 202 608 203 601 621 616 610 206 604 619 605 615
613 612 202 617 614 203 205 611 201 615 602 616 199 618 206 621 204 603 610 608 626
614 201 615 202 613 617 616 199 612 626 191 203 621 200 205 618 627 198 602 204 611
615 614 201 626 616 191 627 617 202 199 613 625 621 200 622 628 190 624 618 192 612
616 621 626 615 617 614 622 618 625 201 624 613 620 627 619 191 602 612 202 623 628
617 613 614 616 612 618 621 602 615 202 201 626 619 611 601 622 205 203 603 620 199
618 619 621 602 601 617 620 616 612 662 622 604 661 603 613 614 657 615 611 626 605
619 618 601 620 662 661 621 602 657 622 604 617 616 660 663 600 623 603 612 624 656
620 619 622 657 621 661 623 618 662 656 624 601 616 660 659 602 658 617 639 625 626
621 618 616 622 620 619 617 626 602 601 624 615 614 623 625 661 612 613 657 662 201
622 624 621 620 623 616 625 626 619 618 657 638 656 639 617 661 615 628 627 601 662
623 624 639 622 656 638 620 657 625 621 659 642 637 640 626 619 661 616 629 628 658
624 623 625 622 638 639 626 628 620 621 616 629 656 627 637 657 615 630 619 642 618
625 626 624 628 627 638 622 616 629 623 615 630 190 621 191 639 620 187 633 637 614
626 625 616 615 627 628 624 622 191 621 614 201 617 190 638 623 620 618 629 630 613
627 628 626 190 625 191 615 192 630 187 616 624 201 638 629 189 614 200 622 188 621
628 625 627 630 190 629 638 626 187 624 633 191 615 622 616 635 623 192 631 188 637
629 630 638 633 635 628 637 634 625 187 624 636 639 631 627 190 623 643 626 632 642
630 187 633 629 628 631 190 635 634 638 627 625 188 632 184 637 624 626 636 189 186
631 632 184 633 186 187 630 634 16 809 188 185 629 17 635 181 190 807 183 628 810
632 16 186 631 809 634 807 184 633 17 810 185 806 630 635 187 808 15 805 18 629
633 634 630 629 635 631 187 632 809 636 628 637 638 184 186 190 805 16 625 188 806
634 633 635 809 632 631 636 629 805 630 806 637 807 16 186 187 644 643 184 638 808
635 636 634 637 629 633 643 638 630 805 809 644 631 639 632 642 628 806 187 624 641
636 635 637 643 644 805 634 629 633 642 809 641 806 795 645 638 639 804 630 646 632
637 636 635 643 639 642 638 629 644 641 634 633 623 624 805 630 656 645 640 628 625
638 624 629 625 639 623 628 637 635 630 622 633 626 627 642 656 636 643 634 187 620
639 623 642 656 638 637 624 640 643 641 629 622 659 657 635 625 636 620 651 628 644
640 659 656 642 655 652 651 641 654 639 658 657 623 653 643 646 717 649 637 660 664
641 651 642 643 646 645 640 644 652 637 647 639 650 649 636 656 655 795 659 792 635
642 641 643 639 640 637 651 656 646 636 644 623 659 645 652 638 635 655 624 629 657
643 644 637 636 641 642 645 635 639 646 651 805 795 640 638 647 629 634 656 650 633
644 643 636 645 795 805 641 637 804 646 635 647 642 794 806 792 651 634 796 650 809
645 647 646 644 641 792 795 650 643 651 791 794 649 642 636 648 793 805 804 637 796
646 651 645 650 647 641 649 791 652 648 792 643 644 642 718 640 795 717 721 794 655
647 650 792 645 791 646 648 793 794 649 795 651 641 721 644 790 789 643 718 796 652
648 650 721 791 719 649 718 647 646 720 792 711 790 651 715 723 645 722 793 717 652
649 718 650 648 646 651 652 717 719 647 791 641 645 715 655 721 716 640 792 711 653
650 647 646 648 649 791 645 792 651 721 718 719 641 652 793 717 790 794 644 795 643
651 641 646 652 649 640 642 650 645 647 655 643 718 717 648 644 791 659 639 656 654
652 655 651 717 649 640 718 653 646 641 716 654 659 650 642 648 669 656 658 715 645
653 655 669 654 716 672 717 665 652 671 664 658 659 670 640 718 668 673 666 660 677
654 658 655 653 659 664 669 640 660 665 652 657 656 666 717 716 672 661 663 671 651
655 653 654 652 640 717 659 716 658 669 651 718 664 649 672 656 665 641 642 660 657
656 659 623 657 639 640 642 658 620 624 622 654 661 638 660 655 641 637 652 651 619
657 661 620 656 659 658 660 623 619 662 622 654 663 640 664 639 621 624 618 601 655
658 660 659 654 664 657 661 656 663 655 666 640 653 665 669 662 620 598 619 652 623
659 658 656 640 654 657 655 660 664 661 623 639 653 652 642 620 651 663 669 641 665
660 658 663 664 661 657 666 662 659 598 654 665 620 619 600 656 667 599 601 596 669
661 662 657 660 619 620 663 658 601 659 618 664 600 656 621 622 604 598 623 666 654
662 661 601 619 663 600 604 660 620 618 657 602 598 599 588 605 621 658 664 603 666
663 598 660 662 666 661 600 664 599 596 658 657 667 604 619 601 665 594 588 597 654
664 666 660 658 665 654 663 598 669 667 659 653 661 657 655 668 596 662 671 432 599
665 669 664 668 666 667 671 653 654 672 658 660 432 598 678 431 677 655 663 716 673
666 667 598 664 665 663 660 596 432 597 658 599 668 669 654 431 661 600 594 662 671
667 666 432 665 431 597 598 668 596 664 433 669 663 678 671 434 599 594 660 429 430
668 671 678 665 677 669 431 667 672 676 430 432 673 666 664 653 429 433 670 679 597
669 665 653 671 672 668 654 664 716 655 673 677 666 667 670 658 717 678 660 652 659
670 713 673 672 716 674 715 671 677 675 717 714 669 712 653 695 718 694 676 668 678
671 672 668 677 669 673 678 665 670 653 676 716 667 431 675 674 430 664 654 713 666
672 671 673 670 716 669 677 653 668 713 717 665 674 678 655 715 676 675 654 718 652
673 677 670 672 671 674 675 676 713 716 678 668 669 694 693 653 715 695 681 665 717
674 675 713 695 670 673 694 712 677 672 714 696 715 693 698 676 716 691 671 692 681
675 694 674 693 673 676 677 681 695 692 670 691 682 713 698 678 672 671 679 680 696
676 677 678 681 679 430 675 693 673 671 668 680 682 426 694 674 431 672 425 429 692
677 673 676 678 671 668 672 675 670 430 674 681 669 693 679 665 431 694 716 713 653
678 677 676 668 430 671 431 679 673 429 681 426 672 665 667 432 669 675 693 433 680
679 681 680 425 430 426 676 682 678 683 693 423 429 427 677 684 675 692 431 424 422
680 681 679 425 683 682 684 693 426 692 676 423 430 413 424 685 427 687 675 678 694
681 679 680 693 682 676 692 425 675 683 430 684 678 694 677 426 687 673 423 691 674
682 692 684 693 680 681 683 687 679 425 694 685 675 691 676 688 413 686 690 426 430
683 680 684 425 413 682 685 424 681 679 423 414 692 693 418 426 135 687 686 688 427
684 682 683 685 687 680 692 688 413 686 681 693 135 425 679 414 424 136 691 690 694
685 135 686 684 413 136 688 683 414 412 687 682 133 411 680 692 418 424 425 138 410
686 136 685 688 135 133 684 687 411 689 412 138 134 413 414 690 131 683 682 692 404
687 692 688 690 691 684 682 686 693 689 685 694 700 699 133 698 683 681 680 675 136
688 687 686 133 689 690 685 684 136 692 700 691 135 682 131 134 132 699 683 123 693
689 700 690 123 688 133 132 131 687 699 124 686 691 701 134 122 136 692 698 130 125
690 700 689 691 699 687 688 698 692 123 701 133 697 694 686 132 682 684 696 693 122
691 698 690 694 692 699 687 695 693 700 696 697 675 688 682 689 674 701 684 707 681
692 682 687 693 691 694 684 681 690 675 688 680 698 683 685 679 699 676 686 695 674
693 681 692 682 675 694 676 680 679 691 687 684 674 677 683 673 425 698 695 678 690
694 675 693 691 692 674 695 698 682 681 687 696 673 676 699 690 713 677 712 697 670
695 696 698 712 674 694 713 707 697 675 691 714 708 699 670 673 693 715 706 692 710
696 697 695 707 698 712 708 706 699 691 694 674 709 701 714 710 705 713 690 675 702
697 696 706 707 698 699 701 695 702 691 708 705 700 709 712 690 694 704 122 123 734
698 696 691 699 697 695 694 707 690 706 700 701 712 692 674 675 687 693 708 689 702
699 698 700 697 690 701 691 696 706 689 123 707 702 695 687 694 122 692 688 124 132
700 689 690 123 699 701 691 122 132 124 688 698 687 697 133 702 131 706 692 696 120
701 702 122 699 700 697 706 123 119 690 698 703 120 704 124 707 689 696 705 691 121
702 701 704 706 703 119 122 705 697 737 120 738 86 699 707 118 123 700 709 734 740
703 86 119 704 738 118 702 85 120 122 739 737 87 117 701 740 706 705 84 121 734
704 703 737 702 738 705 740 706 86 739 119 734 85 701 709 118 736 122 707 697 120
705 734 737 709 706 704 707 708 735 702 740 736 697 703 710 738 696 701 731 733 739
706 697 707 705 702 701 709 696 704 708 699 737 734 698 703 122 695 119 712 710 700
707 696 708 697 706 709 705 712 695 698 710 734 699 702 701 714 737 735 704 711 691
708 710 709 707 712 696 705 714 711 706 734 735 697 733 695 720 737 698 715 713 731
709 708 705 734 735 707 710 706 737 733 736 731 696 697 704 712 740 711 702 714 720
710 708 711 733 709 720 714 712 735 707 719 734 715 705 722 696 731 713 695 732 706
711 720 714 719 710 715 712 708 733 648 722 713 718 721 709 735 707 649 695 696 717
712 714 695 708 713 696 707 710 715 674 711 698 697 670 709 694 719 720 706 675 673
713 670 715 674 714 712 673 716 695 672 675 711 717 718 696 719 694 677 671 710 708
714 715 712 711 713 710 719 708 720 695 670 674 718 696 707 716 717 709 648 733 673
715 714 713 718 719 711 670 716 712 717 674 720 649 710 672 648 673 695 708 652 653
716 717 672 670 653 718 715 713 669 655 673 652 671 649 654 674 714 677 665 719 668
717 716 718 652 655 653 649 715 672 670 651 713 669 654 719 648 650 640 714 646 673
718 717 649 715 719 652 716 648 650 651 655 646 714 711 713 653 670 791 720 721 672
719 711 720 648 715 718 714 721 649 710 650 722 791 717 713 712 733 716 723 708 647
720 711 719 722 710 733 721 648 714 723 715 708 728 735 732 712 718 791 731 709 790
721 648 791 723 790 722 720 719 650 793 792 647 724 711 649 728 725 718 646 733 789
722 723 728 720 733 732 721 724 790 731 711 727 719 735 710 648 725 730 729 791 793
723 724 722 790 728 721 725 727 793 720 791 732 788 726 648 733 768 792 789 719 787
724 723 727 725 728 726 790 722 768 788 732 721 765 787 729 769 793 767 730 786 733
725 724 726 788 787 790 727 723 768 769 793 786 789 728 783 722 798 721 767 765 770
726 769 725 768 787 727 786 724 767 788 770 783 765 785 723 790 728 766 782 771 729
727 768 724 726 765 728 725 729 769 767 723 732 787 722 766 730 786 790 788 770 764
728 732 722 724 723 727 729 730 733 731 725 765 768 720 790 735 726 721 745 746 736
729 730 765 746 732 764 727 728 768 731 745 744 766 724 749 767 747 736 722 726 733
730 729 732 745 731 746 744 728 736 764 765 735 749 733 741 727 722 734 724 768 747
731 735 732 736 730 733 745 734 728 729 744 709 722 737 740 741 746 710 705 720 708
732 731 728 730 733 722 729 735 745 736 724 727 723 746 720 734 765 744 710 768 709
733 735 731 732 710 722 720 709 728 734 711 736 708 730 723 705 745 719 737 729 721
734 705 737 709 735 736 740 731 733 708 704 706 745 710 707 741 732 739 702 730 738
735 731 734 733 736 709 732 710 705 737 708 745 730 740 722 720 728 707 711 741 706
736 745 734 731 735 740 737 741 730 705 744 709 733 732 739 704 743 746 729 738 708
737 740 734 705 704 736 709 739 735 738 706 702 741 703 745 731 707 708 86 733 85
738 86 739 85 703 704 740 737 118 119 742 702 83 84 741 87 705 743 734 82 736
739 740 738 85 742 741 743 737 704 86 703 736 82 83 745 750 734 705 744 118 73
740 737 739 736 741 738 704 734 705 745 743 742 85 703 735 86 731 744 709 702 750
741 743 745 744 740 739 750 736 742 749 737 746 730 738 731 748 751 734 82 85 735
742 82 743 73 739 83 85 750 751 741 74 738 740 72 81 86 71 84 752 744 748
743 750 741 742 739 751 744 73 82 740 749 748 745 752 85 72 738 83 736 746 74
744 745 749 746 741 730 750 743 748 747 764 736 729 731 740 732 751 757 739 742 752
745 744 736 730 741 731 746 740 749 732 735 729 743 734 750 737 739 733 764 748 747
746 764 744 749 729 730 747 745 765 748 741 750 766 731 732 762 763 757 736 758 743
747 749 764 748 757 758 746 763 744 762 752 756 750 766 760 729 759 753 765 751 730
748 757 749 752 750 747 751 744 758 756 753 746 743 764 754 72 741 73 763 745 742
749 744 748 747 746 750 764 757 745 741 743 752 730 758 751 729 763 756 765 736 762
750 743 751 748 749 741 752 744 742 73 757 72 747 745 82 746 739 754 753 740 764
751 73 72 752 750 754 743 748 742 82 71 74 753 757 749 741 70 744 755 76 83
752 748 751 753 757 754 72 750 756 73 755 749 747 743 758 71 70 742 744 82 481
753 755 754 756 752 757 481 69 72 748 70 751 482 758 341 68 71 750 73 747 759
754 753 72 755 752 70 751 71 69 73 756 76 68 757 481 748 67 74 750 341 82
755 753 69 481 754 341 70 756 68 482 752 340 72 757 342 67 480 71 483 76 751
756 757 753 758 482 755 759 752 481 748 754 747 484 763 483 760 69 751 749 490 72
757 748 756 752 758 747 753 749 763 750 754 751 759 755 764 482 746 72 481 744 760
758 763 757 747 756 759 760 762 748 764 490 484 749 753 752 482 761 766 746 481 755
759 484 490 760 758 763 482 756 485 483 761 757 486 491 762 747 481 753 494 480 755
760 490 761 763 759 762 758 484 773 491 494 766 772 485 747 756 764 757 482 493 495
761 760 773 490 762 494 772 763 491 759 766 495 758 493 771 492 485 484 767 774 764
762 763 766 760 761 764 772 758 767 765 773 747 490 759 768 746 771 769 729 770 757
763 762 758 760 747 761 759 764 766 490 757 756 772 749 746 748 773 484 765 767 494
764 746 747 766 765 749 729 762 763 744 758 730 748 757 767 768 745 760 727 750 761
765 768 766 729 767 727 764 769 746 726 762 730 728 724 732 772 770 763 747 725 786
766 762 767 765 764 768 772 763 769 761 729 770 760 771 746 773 727 747 726 758 786
767 769 768 766 770 765 772 726 771 786 727 762 785 787 764 773 729 775 725 783 724
768 727 767 765 769 726 766 724 770 729 725 786 787 728 772 764 762 771 723 783 788
769 767 726 770 786 768 787 727 785 771 783 765 725 766 772 775 724 788 784 782 762
770 769 786 771 785 767 775 772 783 726 768 787 774 784 766 773 779 765 495 727 782
771 772 770 775 774 785 773 495 767 769 786 776 766 529 784 761 779 783 768 762 726
772 771 773 767 770 761 766 762 495 774 775 769 494 785 760 768 786 763 765 529 490
773 772 761 495 494 771 774 762 760 492 491 490 529 766 775 493 770 767 496 763 785
774 775 495 771 529 776 530 773 772 785 770 496 779 492 494 784 786 777 761 528 531
775 774 785 771 776 770 779 784 495 786 772 529 530 783 769 773 777 780 767 787 782
776 530 774 775 779 777 529 531 495 785 527 784 771 496 778 780 528 770 538 822 532
777 778 779 531 776 780 822 538 530 539 784 823 775 527 785 774 532 821 529 537 819
778 539 777 823 538 822 531 821 780 540 779 824 537 819 776 541 530 542 820 532 784
779 784 780 777 776 785 775 822 783 782 778 774 781 530 531 786 770 771 819 529 787
780 822 779 784 781 782 777 819 778 818 783 785 821 823 799 798 776 775 817 820 786
781 818 799 782 780 798 819 822 817 784 800 783 802 797 779 820 821 801 787 796 785
782 783 798 781 784 799 780 787 786 785 788 818 779 797 822 789 819 726 802 770 775
783 787 786 782 784 785 798 770 788 769 726 779 780 781 775 725 799 771 767 797 768
784 779 785 783 780 782 775 786 781 787 770 777 822 776 798 771 774 769 799 818 778
785 775 786 784 770 783 771 779 769 787 774 782 776 780 726 767 772 777 768 495 798
786 783 770 769 787 785 726 784 767 771 775 782 768 725 788 779 727 772 798 774 780
787 783 786 726 788 725 769 782 798 785 770 784 768 727 724 789 767 790 797 793 799
788 725 787 789 790 798 793 726 783 797 782 724 786 723 794 799 769 727 792 796 768
789 793 797 794 788 798 792 796 790 799 795 725 802 791 787 647 782 804 783 723 721
790 793 723 725 721 788 724 791 789 792 722 794 648 647 726 787 728 727 650 797 798
791 647 792 650 648 721 793 790 646 645 649 794 723 789 719 795 651 718 720 722 788
792 647 791 793 794 645 789 650 795 790 646 721 648 796 797 644 788 804 649 723 651
793 789 790 792 794 791 788 647 797 721 725 723 796 795 798 650 645 648 724 787 646
794 795 789 796 792 797 793 804 647 802 645 791 644 798 790 788 799 803 805 650 646
795 794 804 644 796 645 805 792 647 797 789 806 803 802 793 636 643 646 791 641 650
796 797 802 804 794 795 803 789 799 800 798 805 806 792 793 644 818 808 788 645 781
797 796 789 799 798 802 794 793 788 804 800 795 782 803 781 818 792 787 790 783 725
798 799 782 797 781 788 789 783 787 802 818 796 784 794 800 793 780 786 725 726 785
799 798 797 802 781 818 800 782 796 789 817 803 819 794 801 788 783 780 804 784 787
800 802 801 818 817 803 799 796 781 808 812 797 819 816 804 798 820 806 814 782 794
801 800 812 817 816 808 818 814 803 802 820 813 819 811 799 815 807 781 806 804 810
802 800 796 803 799 797 804 818 798 801 794 781 789 795 817 808 806 805 812 782 819
803 804 802 808 806 800 796 801 805 812 797 807 795 799 809 794 818 817 811 810 644
804 796 803 795 805 806 802 794 797 644 808 800 809 799 789 636 645 807 792 801 634
805 806 804 644 636 809 795 634 803 635 643 796 808 807 637 645 794 802 633 632 629
806 805 809 804 803 808 807 634 795 796 802 636 632 644 810 812 16 635 800 801 633
807 810 808 16 809 806 632 811 812 15 186 803 17 634 805 801 631 18 804 813 14
808 807 812 803 806 801 810 811 809 800 804 16 802 805 15 813 632 796 816 817 814
809 634 806 632 807 805 16 808 633 631 810 635 186 636 803 804 17 644 184 812 811
810 16 15 807 811 17 808 18 812 186 632 14 809 813 806 185 13 24 631 20 184
811 15 812 810 813 14 807 808 13 814 16 18 12 801 17 24 816 8 809 186 9
812 811 801 808 813 814 816 807 810 800 15 803 817 12 806 13 14 16 802 820 809
813 814 12 811 13 812 816 14 15 11 9 801 810 8 24 815 808 18 807 820 817
814 813 816 12 11 815 812 801 13 820 811 817 825 9 821 14 819 15 10 8 0
815 820 825 816 821 824 11 814 817 819 12 823 0 826 813 801 542 822 540 818 812
816 814 820 817 801 815 812 819 813 821 800 11 818 12 825 811 824 808 13 822 781
817 819 818 816 801 820 800 781 821 815 814 799 822 812 802 803 780 813 823 808 824
818 781 817 819 800 799 801 802 820 822 798 780 782 816 797 821 803 796 784 812 815
819 817 820 818 822 821 781 816 780 823 815 800 801 799 824 778 782 814 802 539 784
820 821 815 816 819 817 824 814 823 818 822 801 825 11 800 781 813 812 780 12 539
821 820 823 824 819 815 822 817 539 816 778 825 540 818 780 542 781 814 826 11 777
822 780 819 821 778 823 781 777 779 820 818 539 817 784 824 782 538 815 799 816 531
823 539 821 824 778 822 540 538 820 819 542 815 777 780 825 826 541 537 531 817 816
824 823 821 542 815 825 540 826 539 820 778 543 819 822 11 271 816 0 541 538 817
825 815 11 0 826 824 271 542 820 821 12 814 10 272 816 823 543 9 540 1 813
826 271 542 543 825 824 0 272 540 273 270 546 815 11 541 823 821 539 1 274 544
