819 52416
0 3 1 818 274 276 275 2 817 273 5 547 4 815 277 10 548 546 278 805 272 806 7 6 549 44 271 816 814 9 550 288 545 544 280 287 11 804 41 270 45 8 22 286 807 811 813 551 541 279 40 289 43 802 543 542 281 812 808 285 803 13 266 540
1 0 2 817 818 3 10 5 274 806 805 815 276 6 9 7 4 547 275 816 11 273 546 804 277 44 814 22 8 807 548 278 802 41 811 544 803 272 288 13 40 549 545 45 808 813 12 271 550 287 23 43 812 280 801 810 800 790 791 289 286 21 543 270
2 10 1 5 6 3 7 0 9 817 4 806 8 22 818 44 276 11 805 41 274 277 40 804 13 815 275 23 288 45 43 816 803 12 278 547 273 807 802 39 21 24 546 287 42 814 800 272 289 548 20 27 801 46 17 811 16 25 808 47 549 271 286 544
3 0 276 5 1 4 2 274 277 275 818 7 44 278 10 817 273 6 288 272 547 287 45 41 806 815 9 805 548 271 280 8 286 43 289 549 546 40 22 11 816 550 285 814 804 279 270 46 281 545 42 544 291 39 23 807 13 290 47 551 811 802 803 24
4 277 5 44 288 276 3 45 7 278 287 41 2 289 43 0 275 6 1 274 46 40 286 10 272 291 42 285 818 8 280 47 290 273 39 817 9 48 22 271 293 281 284 23 806 279 292 24 547 282 295 38 25 549 805 37 11 548 815 13 270 36 283 52
5 4 7 44 3 2 6 277 276 41 1 0 10 288 45 40 43 8 278 274 9 275 287 818 22 817 289 42 39 46 806 23 47 11 273 272 24 805 286 291 13 815 280 547 25 804 285 290 38 48 271 21 27 12 548 816 546 803 20 37 293 549 36 281
6 8 7 2 22 10 9 5 40 41 23 44 13 1 11 4 3 24 806 21 39 43 12 817 0 27 804 20 42 45 25 276 277 803 805 17 818 288 38 26 16 800 274 47 46 802 19 807 275 815 801 278 289 287 816 35 18 36 14 15 28 31 37 48
7 5 6 41 44 2 40 4 8 43 3 10 45 22 39 277 1 9 23 42 288 276 24 0 46 47 13 25 289 287 11 817 806 38 278 27 818 21 274 275 20 291 12 48 26 804 805 36 37 35 17 803 290 286 273 272 815 19 285 292 52 16 293 31
8 22 6 23 40 13 9 7 24 21 10 2 27 20 41 12 39 11 5 25 17 44 26 43 19 806 42 16 1 803 38 4 804 3 800 18 28 817 45 15 35 31 0 805 47 14 801 277 802 288 36 46 276 818 183 173 799 34 184 807 30 37 29 289
9 11 10 22 806 13 6 8 804 12 2 803 817 1 805 800 21 23 7 802 16 801 17 5 807 40 20 3 0 816 818 14 799 41 24 791 27 815 44 4 15 808 790 19 18 39 798 276 25 274 796 811 797 43 26 814 277 809 546 42 188 184 45 547
10 9 2 806 6 11 1 22 817 804 8 805 7 5 13 3 0 803 818 12 802 807 815 23 816 4 40 44 41 800 21 276 274 801 16 17 277 808 24 814 791 20 547 546 275 811 43 790 27 39 799 45 14 273 288 278 42 25 809 15 810 548 19 544
11 804 9 803 806 10 12 22 802 13 800 801 805 807 817 6 16 2 8 791 799 21 1 17 14 816 790 808 23 7 796 815 797 798 818 5 20 15 0 811 3 809 40 792 18 814 27 188 24 810 633 19 41 187 546 44 4 184 274 793 771 547 632 812
12 13 16 800 17 803 11 22 21 14 9 801 799 15 804 8 20 798 23 18 802 10 806 6 188 797 184 19 187 791 27 796 633 807 2 183 805 24 632 186 40 185 817 790 7 28 26 1 189 173 808 634 631 816 792 5 795 25 174 41 39 809 793 182
13 22 12 21 17 9 16 8 23 11 20 800 803 6 10 14 15 27 18 19 804 24 801 806 40 799 2 7 802 184 798 26 183 28 187 188 25 805 41 5 39 1 817 791 807 797 173 185 186 633 796 44 31 632 174 38 3 790 189 29 42 43 816 4
14 16 798 188 800 799 15 187 17 12 633 797 632 184 801 803 18 13 21 186 189 631 796 634 185 11 183 791 20 22 804 795 802 19 9 635 191 630 629 190 23 192 182 174 8 806 793 173 636 27 790 181 807 794 28 792 10 180 6 193 24 805 628 638
15 184 18 17 187 16 14 183 186 185 188 21 798 19 12 189 20 13 800 632 174 173 182 799 191 633 631 28 27 181 803 22 23 797 801 192 172 175 634 190 180 11 630 8 179 9 26 29 24 178 796 629 804 635 171 802 177 197 31 795 791 30 193 6
16 14 17 12 800 15 13 21 798 799 18 803 188 187 184 801 22 11 20 797 9 633 19 183 186 632 804 23 185 8 189 802 796 27 791 631 806 10 634 28 173 6 174 191 24 182 795 807 26 790 635 630 805 40 190 2 629 192 181 172 792 793 7 29
17 21 16 15 18 13 12 20 14 19 184 800 22 183 23 187 27 188 185 798 803 8 186 28 799 9 11 173 801 24 26 174 189 632 6 633 804 797 182 10 172 40 29 191 631 25 802 806 31 175 796 181 791 30 634 7 2 39 192 171 179 807 190 180
18 15 183 184 17 19 185 20 21 173 186 16 174 187 28 14 182 27 13 12 172 188 189 23 175 191 29 26 798 181 800 22 24 632 179 171 8 799 31 631 30 180 633 192 803 178 9 177 25 11 801 167 190 797 170 32 40 634 176 6 630 159 34 197
19 20 28 18 27 173 21 183 26 17 29 23 15 174 172 24 184 31 185 30 13 16 25 171 175 12 8 186 182 22 187 32 14 34 40 170 35 38 39 33 167 188 181 800 191 189 9 6 179 798 11 99 177 169 803 176 799 41 42 7 36 100 95 632
20 19 27 21 23 17 28 26 18 24 13 8 173 22 15 183 25 16 12 31 40 29 184 30 174 185 172 39 6 9 14 38 35 34 800 187 186 11 7 41 32 803 171 182 10 175 188 42 33 798 170 799 2 36 801 189 43 804 191 5 806 44 181 167
21 17 20 13 23 19 12 22 27 16 18 8 15 24 28 9 14 26 183 184 800 11 6 173 40 803 25 185 187 10 31 798 799 174 188 186 801 39 29 804 7 172 30 2 806 41 38 182 35 802 189 797 633 632 34 5 175 42 191 171 44 43 791 1
22 13 8 9 6 23 12 21 11 10 17 2 20 7 40 803 16 806 804 24 27 800 5 41 1 19 801 14 15 18 817 802 39 805 25 26 44 799 3 807 4 28 43 0 42 184 798 38 791 183 818 816 31 187 188 173 45 797 815 276 35 277 790 796
23 8 24 27 20 21 22 40 13 26 25 6 19 39 17 9 7 12 41 28 38 18 31 16 10 42 35 11 2 15 43 5 44 173 30 183 34 29 800 803 36 14 184 806 47 804 4 45 1 172 174 185 37 33 3 46 32 801 54 187 95 799 817 186
24 25 27 23 26 40 39 38 20 8 35 31 21 19 42 28 41 22 6 34 36 13 7 43 30 17 29 47 44 18 37 173 54 9 33 95 12 5 32 10 2 46 183 45 16 15 53 172 48 11 4 52 174 55 96 184 94 171 170 99 288 185 800 93
25 24 38 39 35 26 27 40 31 42 36 23 34 20 41 54 30 8 28 37 43 95 47 19 33 21 29 7 53 6 32 22 44 46 55 48 13 94 52 173 96 45 17 93 18 99 5 51 172 9 170 183 4 2 56 12 171 97 10 98 291 288 292 15
26 27 31 24 25 28 20 30 19 35 34 23 38 29 39 173 40 21 33 32 8 36 18 172 95 42 17 183 54 13 170 171 22 41 99 174 96 6 37 43 15 7 47 94 184 12 185 93 16 175 98 53 100 55 9 167 97 44 182 169 46 52 48 186
27 26 20 24 23 19 28 25 21 31 8 40 39 17 30 38 18 13 173 35 29 22 34 183 6 15 172 12 42 41 16 32 33 174 36 7 9 184 185 171 43 95 170 54 14 10 11 47 37 175 44 800 99 2 186 187 182 5 96 803 167 53 46 45
28 19 173 29 26 27 30 20 31 172 183 18 174 171 32 24 21 170 23 34 25 175 17 185 33 184 15 35 182 167 38 99 13 186 169 8 39 16 40 100 22 187 179 12 96 95 176 181 177 103 98 14 36 191 54 42 168 189 6 188 101 166 93 178
29 30 28 172 173 171 32 170 31 26 19 33 174 34 167 99 175 27 183 169 100 20 18 35 103 25 24 96 98 185 182 176 168 21 101 23 95 177 184 38 179 17 166 15 102 97 90 93 186 181 39 105 54 36 40 94 159 13 161 191 178 8 187 16
30 31 32 29 33 34 28 26 170 99 171 172 173 35 96 27 19 100 25 98 95 24 20 38 169 167 174 103 93 97 101 175 183 54 90 23 36 18 94 39 21 102 168 185 40 176 182 17 42 111 55 105 37 184 89 166 15 177 8 53 110 91 179 92
31 30 26 34 35 33 29 28 32 25 27 24 38 19 95 99 173 20 170 96 172 39 36 171 23 54 98 93 40 100 94 21 42 97 183 174 18 37 8 55 167 90 169 53 175 101 17 103 41 47 13 43 22 185 15 184 56 102 6 182 52 92 7 57
32 30 99 33 170 29 31 100 34 98 96 171 28 172 101 103 169 26 97 90 173 95 35 167 93 102 19 25 27 168 94 175 111 174 38 105 54 24 110 89 20 183 176 36 91 106 166 92 18 39 104 55 23 112 177 182 109 185 21 57 53 37 113 88
33 34 32 96 99 30 31 95 98 93 97 35 29 170 100 90 94 26 54 101 38 25 28 171 36 103 89 55 172 111 91 27 92 24 173 169 102 57 19 53 39 37 167 56 20 110 75 42 112 105 168 87 23 174 88 175 40 51 106 183 52 47 74 109
34 33 31 35 95 30 32 96 26 38 25 54 99 93 36 29 94 28 98 97 24 27 39 170 55 37 90 53 100 42 19 171 173 20 172 101 23 40 56 92 57 47 91 89 52 103 51 169 111 43 41 21 167 48 102 174 8 183 75 18 60 175 46 58
35 38 34 25 36 31 95 54 26 39 33 24 37 42 30 94 53 27 55 96 40 32 93 47 28 29 23 43 52 99 41 20 97 48 56 51 19 98 46 8 57 170 173 92 90 21 7 60 44 172 100 171 45 49 6 91 292 50 22 101 58 291 13 18
36 37 54 38 53 35 42 47 55 39 95 52 25 48 51 34 94 43 46 56 24 31 40 26 41 93 33 49 60 292 50 96 57 27 45 30 291 44 23 97 32 92 58 7 61 289 322 8 325 28 99 293 59 20 29 288 98 6 91 19 90 321 4 5
37 53 36 52 47 48 54 42 51 55 38 46 39 35 49 43 292 95 56 25 94 50 60 291 41 45 34 40 322 24 57 293 325 93 289 61 44 31 26 58 33 321 59 288 290 96 7 92 27 323 23 295 97 30 4 287 8 326 324 62 5 74 6 63
38 35 25 39 36 42 24 37 54 34 26 40 47 31 95 43 53 27 41 23 55 52 48 33 46 30 94 8 51 20 28 7 44 45 93 96 32 56 19 29 6 292 21 291 49 22 99 97 5 60 57 289 288 4 50 173 13 98 92 170 17 2 172 293
39 42 38 40 25 24 41 43 36 47 35 37 23 26 27 7 8 44 46 54 45 48 31 6 34 53 52 20 95 5 22 4 55 21 288 291 30 28 19 289 33 51 2 292 13 94 9 277 10 29 49 32 287 56 3 17 93 96 293 290 173 12 276 18
40 39 41 24 8 7 23 42 25 6 43 44 38 27 22 5 26 47 45 20 35 2 36 4 46 21 13 9 10 37 31 288 48 19 3 34 277 28 54 17 289 12 1 11 291 53 52 276 30 95 287 806 0 18 16 292 29 33 55 817 278 803 173 804
41 43 44 40 7 42 39 45 5 4 6 47 46 8 288 24 38 25 23 2 277 289 48 36 37 3 291 22 287 10 276 27 35 9 26 52 1 292 278 13 0 53 20 290 54 21 293 31 34 11 285 275 286 51 806 817 274 19 55 95 12 818 49 295
42 39 47 43 38 41 37 36 46 40 48 25 45 44 35 52 24 53 54 7 291 292 289 288 23 26 8 4 51 55 5 6 27 95 34 31 49 293 277 287 290 94 22 20 2 56 50 322 33 60 3 30 21 321 276 295 28 10 93 13 19 9 278 285
43 41 42 47 45 46 44 39 40 48 7 288 289 291 4 37 38 5 36 25 52 277 292 24 6 287 8 53 290 35 293 23 2 54 3 276 278 51 49 27 26 22 285 55 295 10 322 321 286 95 1 34 284 31 9 0 20 50 13 21 275 56 94 294
44 4 41 45 7 5 43 288 277 40 46 289 6 42 3 287 276 2 47 39 291 278 8 48 1 0 10 290 24 23 38 275 22 25 286 285 37 9 292 293 274 36 52 272 818 280 817 284 27 295 35 13 806 273 53 26 11 21 20 281 54 282 321 271
45 288 44 289 43 46 4 41 291 287 277 47 42 5 7 48 290 293 278 292 276 40 39 285 3 286 37 52 295 6 284 2 38 36 321 8 275 25 0 280 53 24 322 49 272 1 282 294 23 10 51 296 281 283 274 35 54 22 323 9 55 279 818 273
46 47 48 291 43 45 289 42 292 288 52 37 41 44 293 290 39 287 36 53 4 49 40 38 295 277 321 322 51 7 5 285 54 284 25 55 50 278 35 323 294 286 24 276 6 325 3 60 296 8 56 320 2 95 23 283 324 282 61 26 94 297 34 318
47 46 42 48 43 37 52 36 39 45 291 41 292 53 38 44 289 51 40 54 49 25 288 35 293 55 290 7 24 322 4 50 287 95 321 5 56 295 277 60 94 34 6 325 26 8 23 323 27 31 285 61 284 294 278 276 2 3 57 286 93 33 324 320
48 47 52 46 292 37 291 49 53 42 43 51 293 36 45 322 289 50 321 290 39 55 54 38 41 288 295 325 44 60 323 56 287 35 40 25 294 61 95 4 324 284 7 94 320 285 277 24 326 59 5 296 57 58 34 62 286 318 278 297 26 6 93 63
49 50 51 52 325 322 292 60 48 61 53 323 321 37 324 326 55 56 59 293 62 47 291 46 320 58 36 54 63 295 294 332 290 42 57 64 328 94 327 289 43 45 66 333 95 38 319 73 318 39 35 74 284 329 296 297 288 92 41 93 334 65 331 287
50 49 61 60 325 51 59 52 56 62 322 326 53 55 58 63 292 324 48 37 323 64 57 321 332 66 54 73 94 36 47 333 327 293 320 74 46 291 328 65 95 92 72 294 295 42 334 337 93 78 38 319 290 75 329 331 68 43 35 318 289 336 39 45
51 53 52 50 49 60 55 56 37 61 48 54 325 36 292 59 58 322 47 57 94 95 62 46 326 63 42 38 321 291 323 324 35 93 92 293 73 74 43 66 39 64 332 34 25 320 75 45 295 289 290 96 97 91 294 333 41 72 33 78 327 65 328 40
52 48 51 53 37 49 47 292 50 55 36 46 54 60 322 42 56 291 325 43 61 293 38 321 39 94 95 35 45 323 289 59 58 57 290 41 324 295 326 25 62 44 288 40 294 63 93 320 34 92 24 287 73 74 332 284 64 7 31 33 4 96 26 66
53 37 55 51 52 54 36 56 48 60 49 47 50 94 95 38 42 35 292 57 46 61 58 39 325 93 59 43 322 34 25 291 92 96 33 293 41 45 74 97 321 62 31 40 63 24 326 323 73 289 26 91 75 324 44 290 66 30 295 288 64 27 32 98
54 36 55 95 53 94 37 35 38 56 51 34 52 93 57 42 47 25 33 96 39 60 48 31 97 92 49 50 58 26 46 24 43 30 32 91 292 61 99 59 40 98 74 90 41 75 27 325 291 322 89 29 45 73 23 28 44 63 87 293 62 101 170 100
55 53 56 54 94 51 60 95 37 36 57 52 50 93 58 49 92 35 59 38 61 48 47 34 96 74 97 42 325 33 91 75 292 73 39 25 46 63 322 62 31 43 66 90 98 78 326 89 291 99 26 87 30 32 24 72 64 76 41 40 321 293 323 324
56 55 60 57 58 51 94 53 59 50 54 92 61 74 95 52 93 49 37 73 36 75 63 325 91 66 97 62 78 48 96 35 72 47 38 326 34 292 64 322 76 87 33 42 89 90 65 68 46 77 98 324 39 25 332 79 323 333 88 31 99 321 291 43
57 92 56 58 74 94 75 55 93 60 91 73 59 95 78 97 54 51 53 87 61 76 50 96 72 66 89 63 77 90 36 37 52 49 88 86 62 33 98 79 34 68 325 35 111 64 65 81 70 99 112 82 38 85 326 48 47 101 32 84 71 31 322 292
58 59 73 57 60 56 74 61 66 63 92 72 78 50 55 75 51 62 94 64 68 76 53 65 325 91 49 93 54 326 79 52 87 95 70 77 97 333 37 332 36 337 89 81 67 96 322 69 86 336 324 71 88 48 82 90 292 334 35 327 80 323 47 34
59 61 58 63 60 66 73 62 50 56 64 325 57 74 326 72 51 65 49 55 78 333 68 332 92 53 337 75 52 94 324 322 336 70 76 67 334 79 54 327 37 91 93 323 69 335 292 95 339 48 36 331 77 87 338 321 328 71 97 749 81 320 329 341
60 50 56 61 51 59 58 55 49 325 57 53 63 52 62 73 94 326 66 54 74 37 64 92 322 48 36 292 95 72 324 93 75 332 78 65 333 323 47 91 321 68 46 327 35 97 76 38 337 42 291 293 96 320 334 87 34 328 79 70 336 77 39 43
61 59 50 60 62 325 63 326 58 49 64 51 56 66 332 73 324 333 322 55 52 57 53 65 323 327 74 72 337 292 334 321 37 48 68 94 328 78 54 320 92 336 331 335 329 75 36 67 293 339 47 95 70 93 319 294 291 76 46 341 79 91 295 338
62 63 326 64 61 332 333 325 59 50 66 324 60 65 337 327 334 58 49 73 331 335 336 322 51 323 328 72 56 329 339 68 67 341 320 57 74 330 52 321 338 55 53 292 78 319 340 70 348 314 69 48 749 294 37 92 347 79 342 94 293 318 478 75
63 62 64 59 66 61 65 73 333 326 58 60 332 325 337 50 72 68 336 334 56 67 74 49 327 324 335 78 51 57 339 70 331 338 69 322 55 79 341 749 323 92 53 75 52 328 329 76 340 330 94 71 479 320 292 321 478 748 54 37 91 48 81 77
64 333 63 62 337 65 332 66 326 334 61 59 336 335 339 325 327 73 67 331 68 72 50 58 324 60 338 341 340 329 330 749 49 328 70 69 78 56 74 322 51 479 478 323 57 342 348 79 477 320 347 346 748 55 314 319 321 52 750 71 481 76 53 480
65 66 68 67 336 64 337 63 72 333 73 338 69 70 339 62 749 59 335 334 332 61 78 58 479 79 326 748 340 71 74 478 341 750 60 747 331 325 327 76 50 480 481 57 477 56 81 330 744 80 324 75 746 342 736 329 92 483 51 49 77 751 482 753
66 73 65 63 72 68 59 64 58 62 61 78 67 70 337 74 333 336 60 69 79 326 332 57 50 56 338 76 339 325 749 334 71 335 75 92 748 51 81 747 479 49 327 55 77 324 331 340 341 80 91 750 94 87 478 53 82 736 322 52 330 746 86 744
67 749 336 338 65 69 68 479 337 339 70 748 750 66 72 478 335 64 480 340 333 63 747 481 71 334 73 79 744 483 341 62 751 477 753 78 746 482 59 332 476 736 80 331 742 58 326 342 61 484 74 81 737 745 76 474 330 485 752 327 475 743 60 487
68 72 70 65 69 66 67 79 73 78 71 749 336 748 63 747 64 338 74 76 337 59 58 81 80 750 339 479 736 333 62 746 744 75 61 77 335 82 57 737 60 334 92 480 478 332 340 735 751 326 56 87 745 83 742 86 50 91 753 481 341 325 84 483
69 70 748 68 749 67 747 71 79 750 72 65 744 338 746 479 336 736 66 80 751 78 737 73 81 745 480 742 337 339 753 76 483 64 478 63 735 738 481 74 752 340 743 333 335 82 741 59 77 58 482 83 734 484 62 739 334 740 75 756 477 341 726 733
70 68 69 79 71 72 747 748 78 67 80 65 81 73 736 66 749 76 746 744 737 74 336 750 338 82 77 735 63 479 745 58 337 64 75 59 83 751 742 738 339 84 87 86 734 480 333 62 753 57 92 733 739 478 61 335 741 483 91 743 340 752 60 740
71 747 79 70 80 736 81 69 746 737 748 68 735 72 78 76 82 744 745 83 738 77 749 734 67 73 742 733 750 65 739 84 66 751 74 86 740 732 75 731 741 117 87 338 336 479 743 700 116 753 726 58 752 63 85 88 59 480 92 337 91 701 64 730
72 68 73 78 66 70 79 65 74 76 69 58 71 63 59 67 81 75 64 747 77 57 80 336 748 749 62 61 92 337 82 60 736 87 338 56 333 91 86 339 746 50 750 479 326 737 83 735 84 744 332 335 334 325 94 88 55 51 89 93 85 745 340 478
73 72 66 58 74 78 59 68 63 65 57 79 76 70 75 60 61 64 56 92 62 69 67 77 50 71 81 91 87 336 333 337 55 51 326 94 325 82 80 747 332 749 86 93 338 49 748 53 339 334 736 88 97 89 335 54 84 95 52 83 324 479 85 327
74 75 78 73 57 92 58 76 72 91 87 77 59 56 66 79 60 94 68 93 86 81 63 70 89 55 97 82 88 61 65 71 50 51 90 80 95 85 84 62 64 96 54 69 53 112 111 83 67 98 747 325 736 49 116 326 52 333 115 336 337 37 33 36
75 92 91 74 87 76 77 78 57 89 86 88 97 58 93 73 94 82 90 72 85 79 81 56 112 111 84 96 59 55 66 98 60 95 68 70 80 116 115 83 71 113 54 114 63 101 61 33 99 51 53 65 50 736 117 69 34 119 109 110 735 747 125 62
76 77 78 81 75 79 82 74 87 86 72 91 84 73 80 92 88 71 70 83 85 68 57 89 58 736 116 66 735 112 747 69 115 117 59 97 93 56 65 733 90 111 94 737 63 114 60 748 119 746 113 734 67 700 96 55 61 98 732 64 118 749 124 95
77 86 76 87 82 81 84 75 88 85 78 91 79 74 83 116 89 80 92 112 115 71 72 117 73 114 111 70 57 735 736 119 97 90 113 733 58 68 93 747 700 124 118 66 125 94 734 69 737 98 96 56 109 699 732 59 120 101 746 110 65 748 60 63
78 76 74 72 79 73 75 77 68 70 81 58 66 71 87 92 82 57 91 80 86 59 69 65 63 84 747 88 56 736 83 60 89 67 85 61 64 94 735 748 93 97 62 116 55 749 737 112 336 746 50 90 337 115 117 733 51 111 333 338 96 744 95 734
79 71 70 81 78 76 72 80 68 747 69 736 82 77 73 74 66 735 748 83 75 737 746 65 86 84 87 67 58 749 744 92 733 91 734 59 57 745 63 88 738 85 116 117 336 750 338 739 64 742 732 700 89 751 337 479 115 731 56 60 61 62 740 112
80 736 81 71 735 79 83 747 82 737 70 734 746 733 76 84 77 738 78 69 117 739 732 745 748 700 72 68 86 731 116 744 740 87 742 85 74 701 75 73 115 88 741 699 749 730 751 67 726 118 66 750 119 65 704 743 702 91 727 92 112 757 58 89
81 82 80 79 76 77 83 71 84 736 735 78 86 70 747 87 733 72 737 117 116 75 74 85 68 734 88 69 746 700 73 115 732 91 748 738 739 92 745 731 119 66 89 112 118 744 699 58 701 57 114 65 67 740 749 742 113 111 59 702 124 750 97 63
82 84 81 77 83 86 76 80 116 85 87 117 79 735 88 733 115 78 71 736 75 700 119 112 74 734 91 70 114 89 747 732 118 737 72 699 92 113 68 73 124 746 731 111 701 739 69 738 120 125 57 90 702 748 97 696 58 745 121 66 697 109 740 93
83 84 82 117 733 735 81 116 80 700 734 732 736 77 86 115 699 85 118 76 119 71 79 737 701 731 739 87 88 747 702 738 78 114 746 696 70 112 704 75 697 124 120 740 745 730 121 698 113 89 72 91 74 69 68 125 748 703 111 92 695 744 73 693
84 82 116 83 86 85 117 115 77 81 88 119 87 76 733 80 700 114 118 735 112 699 79 124 75 113 89 736 732 78 734 91 120 71 125 111 121 701 74 696 697 737 702 92 731 109 70 747 90 72 126 739 698 97 738 122 123 746 73 110 108 68 704 57
85 88 86 115 112 114 84 116 87 113 77 89 119 82 111 124 125 91 83 117 109 76 75 120 90 81 118 110 126 92 108 97 121 101 700 699 78 733 80 98 74 123 79 102 735 106 697 93 122 96 107 696 57 127 71 736 732 99 100 734 142 72 94 105
86 77 88 85 87 84 82 76 112 116 115 89 75 91 81 83 114 111 113 119 78 117 92 74 90 79 80 124 97 125 733 118 109 735 700 57 120 71 93 72 98 110 736 101 73 699 70 96 126 58 108 121 94 734 732 68 747 102 697 737 99 123 106 56
87 88 86 77 91 75 89 76 85 92 112 82 74 84 111 78 90 97 81 115 116 57 93 113 114 79 83 98 96 94 73 58 72 119 80 101 117 109 125 124 110 56 71 99 70 95 68 735 102 55 733 33 736 120 66 59 118 100 108 700 60 126 54 106
88 85 86 87 112 89 77 111 91 113 115 114 84 75 90 116 82 76 97 92 125 109 119 124 98 101 110 81 74 83 93 78 96 117 120 57 108 102 126 79 99 118 94 106 80 100 733 121 107 73 700 58 72 33 123 699 735 95 103 71 105 56 736 32
89 90 111 88 91 112 87 97 98 86 85 75 92 101 113 93 96 77 114 110 109 99 115 76 74 94 102 57 125 84 100 82 33 116 124 95 78 106 32 108 119 103 81 56 34 105 58 126 83 107 55 170 120 54 73 79 117 30 72 169 80 35 31 118
90 98 97 89 111 101 96 99 91 93 112 88 100 87 33 110 92 102 113 32 75 94 109 85 95 103 86 34 170 114 106 57 77 125 105 30 74 115 108 76 169 54 31 124 107 55 29 56 35 84 171 168 116 82 104 126 78 58 119 167 145 36 53 120
91 92 75 87 89 97 88 93 90 74 57 77 86 111 76 96 112 94 98 85 78 95 58 56 101 82 99 113 84 73 55 33 81 114 115 54 79 72 110 116 60 109 34 100 59 102 32 125 83 53 66 124 51 80 119 35 68 70 36 71 103 30 61 106
92 75 91 57 74 93 94 97 87 89 56 58 76 78 90 96 77 55 95 88 73 86 60 98 54 111 59 72 112 85 33 53 51 82 79 66 99 81 34 61 101 50 84 36 63 68 35 37 113 70 32 52 115 114 100 116 49 80 71 62 65 110 38 83
93 97 94 96 95 92 91 90 57 33 98 54 89 55 34 75 99 56 35 87 74 111 32 101 53 36 58 88 31 30 100 60 112 38 51 37 77 86 76 78 170 25 73 59 52 85 102 26 29 110 50 113 103 39 61 42 109 49 72 47 171 28 24 82
94 93 95 55 54 57 56 92 97 96 53 91 36 34 33 35 58 51 60 75 37 74 90 98 38 89 52 99 59 50 87 31 32 73 30 25 61 49 111 78 47 42 88 48 76 39 101 26 77 100 112 86 63 66 325 72 24 29 170 292 46 62 85 43
95 94 54 93 34 35 96 33 55 36 97 53 38 56 31 37 57 92 25 99 98 32 30 90 51 91 26 52 39 60 42 75 89 58 47 24 29 74 48 101 100 27 50 170 111 28 49 87 59 40 43 61 46 88 73 41 23 171 19 112 292 20 103 78
96 97 93 98 33 99 90 95 34 94 32 101 89 91 100 30 92 111 31 54 35 170 57 55 75 29 102 87 103 112 88 36 56 38 110 26 171 53 25 74 169 28 113 37 86 109 58 85 105 172 106 77 51 60 24 167 27 76 39 173 168 114 52 78
97 96 93 90 98 91 89 92 94 99 111 33 95 101 75 87 57 88 34 112 32 100 54 74 55 56 86 102 30 110 85 35 77 113 31 170 103 76 58 109 36 53 78 114 29 38 106 60 125 105 73 115 51 37 169 171 82 84 26 25 59 108 116 124
98 99 90 96 101 97 100 111 33 32 89 93 102 103 170 110 91 34 112 30 95 94 88 92 109 113 105 169 106 31 87 29 171 75 35 168 85 57 54 167 86 125 114 108 104 107 172 55 26 28 77 74 56 36 115 38 173 145 124 25 76 126 166 53
99 98 32 100 33 96 101 170 90 30 97 103 34 102 93 29 111 171 31 169 95 89 110 105 167 94 172 168 91 35 106 28 112 26 109 92 173 54 113 88 104 87 25 175 38 75 166 57 36 107 176 27 55 19 174 108 125 85 24 114 145 56 86 146
100 103 101 99 170 102 98 169 32 105 171 110 168 90 33 96 167 106 111 30 29 97 104 172 109 89 34 166 31 107 93 112 176 113 145 146 175 108 165 173 28 164 95 91 125 88 174 26 94 177 35 144 114 142 161 147 92 87 163 126 85 143 162 19
101 102 98 100 111 90 110 99 103 106 105 109 89 96 97 112 170 32 113 169 33 168 107 108 104 88 93 125 91 171 114 30 145 167 85 87 34 29 126 92 124 95 146 86 142 94 31 166 75 115 172 165 144 143 164 176 127 77 35 57 147 120 28 119
102 110 105 101 103 106 100 109 104 107 111 168 98 169 99 108 145 90 113 170 146 125 112 32 142 89 165 167 171 126 96 144 97 166 114 143 164 33 147 124 88 127 176 30 85 29 163 91 93 172 115 141 123 87 148 162 120 34 161 175 86 153 31 119
103 100 102 169 105 168 101 170 106 104 110 167 99 171 98 166 32 146 165 107 145 176 164 109 111 90 29 172 30 33 108 96 175 144 147 113 163 97 161 142 162 112 89 177 125 143 173 31 34 174 28 126 93 153 148 114 152 179 88 127 159 158 160 91
104 146 105 145 165 106 168 144 107 147 102 103 164 143 163 142 166 110 169 148 108 153 162 109 100 101 141 167 152 139 176 127 161 150 170 126 125 151 171 113 128 158 111 99 149 98 140 177 129 123 90 124 160 392 32 112 114 175 157 172 138 159 154 29
105 104 106 102 103 168 145 110 107 146 169 100 165 101 109 144 108 166 164 147 142 143 170 167 163 111 99 98 113 125 171 176 126 148 162 90 127 153 32 141 161 112 152 139 114 124 89 172 96 29 175 128 177 150 97 33 123 30 158 151 88 129 140 120
106 107 110 105 102 109 104 145 108 103 142 101 146 125 113 143 126 144 168 100 111 127 165 169 147 112 114 124 98 141 90 99 123 164 166 170 163 148 89 128 167 120 139 129 88 153 85 115 171 32 162 97 140 176 96 119 152 122 150 161 121 33 136 91
107 106 108 145 142 109 143 110 104 105 126 127 144 102 146 125 141 113 123 128 147 103 124 165 101 129 114 168 139 111 148 120 100 112 140 163 169 164 153 122 136 166 137 115 90 98 150 130 121 119 85 149 138 89 99 162 88 170 152 167 132 151 176 393
108 107 126 109 125 142 106 127 110 113 124 145 123 114 143 102 120 105 104 129 112 141 144 111 128 146 101 122 115 119 121 103 85 130 136 140 88 147 100 139 89 165 90 168 116 98 137 148 132 118 86 169 697 687 99 163 87 84 131 164 138 153 97 166
109 110 113 125 108 106 107 126 114 112 111 124 102 101 142 105 127 145 120 115 85 123 88 89 104 90 103 119 100 98 143 146 144 86 116 121 129 99 122 87 168 141 97 128 91 84 169 165 96 118 147 130 170 77 136 32 140 697 139 93 117 75 82 148
110 109 102 106 101 108 113 111 107 105 125 103 112 100 104 145 90 114 126 98 142 89 124 99 168 88 146 127 169 85 143 97 144 115 170 123 120 96 165 32 91 87 119 86 147 141 167 33 166 171 93 164 116 129 128 121 122 163 148 84 77 30 92 75
111 112 89 90 101 113 110 88 98 109 97 102 85 91 114 87 125 99 100 96 86 106 108 115 93 103 124 105 75 92 107 77 126 33 32 116 84 119 170 94 120 104 76 82 145 169 95 142 57 74 168 34 127 123 30 78 171 146 83 81 117 121 143 118
112 88 113 111 85 89 114 86 109 115 87 125 90 110 124 91 101 116 77 84 119 97 98 108 102 75 126 106 120 82 92 96 107 76 93 100 99 117 105 83 123 103 118 121 81 74 127 142 78 57 145 33 94 104 122 32 699 700 697 95 170 79 80 733
113 114 125 109 112 124 111 110 108 85 115 88 126 89 119 106 120 101 107 102 86 90 116 123 87 127 142 84 98 105 121 91 77 97 145 100 118 103 122 104 82 99 117 75 143 96 129 83 697 92 76 93 146 130 144 128 699 141 168 81 169 700 687 170
114 124 113 125 115 112 85 119 109 120 126 116 88 108 111 86 110 84 123 121 89 118 87 107 117 127 122 106 77 90 82 101 102 142 697 83 699 91 129 98 700 130 696 105 145 97 75 687 76 81 733 143 100 128 104 103 695 92 99 96 136 141 93 698
115 116 119 114 85 124 84 113 86 112 120 88 125 118 117 82 83 121 77 87 109 126 699 111 89 700 697 123 108 122 733 696 81 110 76 91 90 75 127 735 80 687 107 732 702 106 101 695 701 698 130 142 102 97 734 92 78 129 79 98 736 74 688 71
116 115 84 119 117 85 83 118 86 82 114 700 699 124 88 77 733 120 112 113 81 121 87 125 697 696 735 80 76 732 89 702 701 126 111 734 109 122 123 75 698 91 736 79 108 695 731 687 78 71 110 90 737 704 739 127 92 74 130 97 747 693 101 107
117 700 83 116 733 699 118 84 119 115 732 82 735 701 702 696 734 85 697 81 86 80 731 121 698 120 77 114 124 736 704 88 739 695 737 76 87 112 113 693 122 125 71 703 79 738 687 730 123 747 126 740 705 746 89 78 694 75 109 688 111 689 745 91
118 699 119 697 696 117 121 116 700 120 115 702 698 695 124 733 122 84 687 83 701 114 732 85 123 125 688 82 693 126 130 86 689 113 694 735 734 704 731 703 112 88 131 77 81 685 109 80 127 686 108 692 690 129 132 87 739 736 708 705 730 136 111 76
119 115 116 118 120 124 114 121 117 85 84 699 697 125 113 122 123 126 696 700 112 86 83 88 82 109 687 733 108 695 77 702 698 130 127 87 111 701 89 732 110 81 129 688 735 107 142 131 76 80 734 106 689 91 132 90 693 136 75 731 694 128 101 686
120 124 121 119 123 122 126 114 125 115 118 697 127 113 130 108 116 687 109 129 696 699 85 695 117 112 142 131 84 107 688 132 136 128 110 88 700 698 86 106 111 686 83 702 143 689 141 82 145 733 685 137 89 133 87 140 102 77 701 694 101 105 135 684
121 122 120 697 687 123 118 119 124 130 696 695 126 699 688 115 114 131 125 116 127 129 698 132 117 686 689 136 108 113 700 702 685 85 109 84 128 142 694 133 112 684 83 693 733 107 701 690 137 86 88 135 110 732 141 682 82 140 683 143 106 692 111 703
122 121 130 123 687 120 697 131 129 132 126 688 124 127 695 136 119 118 686 696 125 128 114 133 108 685 689 699 115 142 698 137 684 135 116 113 109 140 141 107 117 694 683 143 702 134 690 700 85 682 397 407 112 681 84 110 106 145 693 138 701 139 88 83
123 126 122 127 120 129 121 130 124 125 108 142 136 128 687 132 119 114 131 697 109 107 113 141 115 118 143 137 140 688 695 106 145 110 686 133 696 116 135 112 85 699 144 139 397 685 689 117 138 111 104 102 105 698 684 146 88 84 407 134 683 86 700 101
124 114 125 120 126 119 113 115 123 121 109 108 122 85 112 116 127 118 110 107 697 88 142 111 84 129 130 106 86 117 687 699 89 696 102 128 87 145 101 695 136 83 143 82 700 77 90 131 132 105 141 688 104 698 733 91 144 98 702 140 137 103 686 146
125 124 113 109 114 126 108 120 110 112 123 115 107 119 127 106 85 111 142 121 88 102 122 116 145 101 89 129 105 86 118 143 90 84 130 104 128 697 87 141 103 98 117 144 100 136 687 146 77 91 699 82 97 696 132 140 83 99 131 168 695 137 700 139
126 108 125 123 127 124 120 109 142 107 114 113 129 122 121 106 110 119 128 143 130 145 115 141 112 136 102 85 111 105 144 118 697 104 132 687 140 116 137 131 88 146 101 139 89 86 84 696 103 695 688 699 117 147 90 133 138 135 100 148 165 686 87 397
127 142 126 129 123 128 108 141 107 143 136 125 122 130 140 145 120 124 109 137 106 144 121 132 139 113 114 110 104 131 146 138 119 687 105 397 135 102 147 148 115 133 697 112 149 688 165 118 396 686 111 393 150 407 85 101 398 695 116 153 103 163 168 696
128 129 140 141 137 136 127 142 143 138 139 397 123 132 130 126 135 144 107 145 108 396 122 393 149 133 398 131 407 148 146 120 125 147 150 106 124 121 104 109 687 400 399 686 392 134 395 153 385 110 105 406 165 688 113 114 394 391 683 163 697 119 151 102
129 136 128 127 130 123 137 132 140 141 122 142 126 131 143 135 397 133 108 120 121 138 687 107 139 124 125 145 407 686 144 688 396 398 109 697 134 106 393 114 149 119 113 695 683 684 146 685 400 148 110 104 406 147 118 399 115 150 689 408 696 105 385 395
130 132 122 131 136 129 687 123 121 688 686 133 127 120 128 135 697 137 695 126 685 684 124 140 689 683 134 142 696 397 407 141 118 119 125 108 681 682 143 698 114 699 138 107 694 690 408 406 409 398 115 109 396 113 400 139 145 116 420 702 144 678 691 117
131 132 686 130 688 133 687 684 685 122 136 683 135 134 129 695 689 121 123 697 681 682 137 407 128 409 120 690 408 127 696 397 694 406 420 140 126 698 678 118 691 124 410 398 400 141 119 699 680 142 403 138 396 411 125 693 108 692 675 674 679 702 143 399
132 131 130 136 133 135 129 686 137 122 687 688 134 128 407 683 684 123 397 685 140 127 121 406 408 695 398 689 120 409 697 141 681 126 400 138 396 682 142 403 420 124 143 399 696 690 410 108 139 678 694 125 118 411 119 393 405 698 107 691 385 114 699 145
133 132 135 134 131 683 686 407 136 684 130 408 406 409 137 688 397 685 129 681 687 400 398 122 420 403 128 410 682 140 411 689 396 405 123 399 678 695 138 127 121 414 690 141 697 404 419 691 413 680 402 120 679 385 694 126 412 142 393 696 139 143 422 361
134 408 683 133 409 406 407 135 684 410 686 420 132 411 131 403 681 400 405 685 136 397 414 398 678 137 688 682 130 413 419 399 404 412 687 396 129 679 689 680 402 418 415 140 416 128 691 361 422 122 690 138 385 695 401 421 677 123 456 457 363 417 694 121
135 407 133 397 137 132 136 134 406 398 400 408 131 396 683 140 129 130 403 128 399 686 138 409 684 405 385 141 402 411 688 404 410 122 685 393 687 127 123 681 420 395 139 142 401 143 682 149 412 413 414 121 689 361 678 384 126 695 394 120 386 419 363 697
136 129 132 137 128 130 135 140 133 131 397 127 123 122 141 407 138 686 142 134 398 687 396 126 143 688 121 139 683 400 406 120 684 108 408 685 393 399 107 124 697 144 695 149 145 125 403 409 385 689 681 395 109 148 119 402 682 114 106 696 150 146 118 405
137 140 397 136 128 135 138 129 396 141 398 132 407 133 139 130 127 393 400 143 399 131 142 149 134 123 406 385 395 122 403 144 686 126 408 402 683 148 145 394 150 107 687 108 392 688 684 121 391 120 386 147 404 409 384 146 405 685 125 124 401 153 390 411
138 393 140 396 397 139 137 149 141 398 128 395 385 394 392 399 150 136 143 391 135 148 129 407 400 386 144 142 402 390 127 384 132 147 389 223 153 145 133 151 406 403 146 387 224 130 107 401 134 123 388 364 163 131 404 152 165 126 380 104 108 408 122 227
139 149 141 148 143 138 150 140 144 393 147 128 392 153 145 142 146 137 396 151 391 397 163 127 165 129 394 107 223 104 395 152 136 398 108 385 224 162 164 106 389 105 135 126 390 386 154 123 399 225 132 407 168 130 400 158 166 227 109 110 157 384 125 388
140 137 128 141 138 139 397 136 129 396 143 393 149 127 142 398 135 144 132 407 148 150 130 145 395 123 133 399 392 400 385 107 147 126 394 146 108 131 391 122 153 406 134 104 402 386 151 403 106 165 223 163 120 125 390 686 384 121 408 687 109 124 389 105
141 143 128 140 139 142 144 127 138 129 137 145 149 148 136 107 146 147 393 150 397 108 126 396 123 104 153 106 392 165 132 130 135 398 163 105 109 125 151 122 395 391 407 110 394 152 133 124 120 131 385 164 223 102 399 400 162 168 121 113 114 103 386 687
142 143 127 107 145 108 141 126 128 144 106 129 123 109 104 146 125 140 139 110 105 147 136 124 137 148 102 113 120 165 122 130 138 114 149 150 153 132 121 103 163 168 397 101 393 112 111 164 119 135 131 115 396 100 392 152 151 687 169 166 162 133 85 398
143 144 141 142 145 139 107 146 128 127 147 148 140 104 108 106 129 165 149 126 150 138 105 153 137 163 123 136 109 110 393 125 102 392 164 151 168 152 397 396 162 124 103 130 113 122 132 120 166 135 391 114 223 398 169 101 395 394 121 100 111 131 161 158
144 146 143 145 147 148 104 139 165 141 142 153 107 163 150 105 106 149 164 128 140 152 127 151 108 162 168 392 138 166 102 110 129 126 393 103 109 137 169 223 161 158 125 123 136 391 154 396 397 176 157 100 101 167 113 394 124 224 395 225 160 130 120 114
145 144 107 104 146 143 142 106 105 147 108 165 141 148 127 110 102 139 109 168 163 126 153 128 103 164 125 140 150 166 129 169 162 123 152 149 101 113 100 151 124 138 137 111 114 136 392 167 161 120 176 393 112 170 158 122 98 130 99 90 171 397 223 396
146 104 147 144 165 145 163 148 143 105 164 153 168 107 106 142 162 166 152 139 141 150 103 102 151 169 108 110 161 149 127 158 176 109 128 167 392 140 100 126 101 138 157 154 125 223 160 129 170 393 171 177 113 123 137 391 159 111 156 175 99 136 124 155
147 146 148 165 153 144 163 152 104 145 164 150 162 143 151 139 149 141 166 168 105 392 107 142 158 106 161 154 223 157 140 103 169 176 128 138 393 102 108 127 391 160 167 110 225 224 155 109 156 177 126 129 137 222 100 159 394 396 389 101 227 125 170 171
148 147 153 150 144 139 163 151 146 149 152 165 392 143 145 141 162 164 104 223 393 138 154 391 142 140 158 107 128 166 224 105 157 168 225 161 106 394 127 389 137 396 395 108 222 227 155 129 397 160 176 103 390 169 102 156 136 110 126 232 386 398 167 109
149 392 150 393 139 138 391 148 394 223 151 140 141 153 395 396 144 147 143 389 224 390 128 397 137 386 152 385 163 146 398 225 145 154 165 227 142 388 399 162 384 129 229 104 387 136 127 164 107 380 222 400 135 228 402 232 157 407 158 226 106 105 108 155
150 148 392 149 151 153 139 223 147 152 391 163 144 393 224 154 146 138 165 143 141 225 162 394 389 140 145 164 227 395 157 158 104 390 222 396 128 142 232 386 155 137 229 161 388 166 107 397 385 226 168 105 127 398 156 228 106 129 160 231 136 221 387 384
151 153 152 150 154 223 148 392 163 147 225 162 157 149 224 158 165 391 222 164 139 155 144 146 227 232 389 161 156 393 143 160 394 166 104 145 202 221 231 226 141 229 138 220 390 168 395 140 388 176 199 159 228 142 105 386 201 396 230 107 203 177 128 233
152 163 153 162 151 158 154 157 164 147 148 165 150 161 146 223 155 166 392 160 156 225 144 222 149 104 139 176 168 224 202 145 159 391 143 177 227 220 199 232 221 105 169 167 141 201 393 389 231 198 179 203 107 103 142 178 106 226 138 394 229 175 140 200
153 148 163 152 151 147 150 165 162 146 144 164 392 154 139 149 158 223 157 104 143 145 161 166 225 391 141 224 168 155 393 222 160 105 156 138 142 176 107 227 140 389 106 394 169 232 128 202 159 177 103 167 221 395 220 102 127 390 108 199 396 229 231 226
154 157 225 222 151 155 152 223 158 153 232 224 156 221 227 162 202 220 150 163 392 231 148 226 160 391 161 147 164 203 229 389 165 201 149 219 199 218 233 230 215 166 146 139 159 144 394 228 238 198 390 393 388 210 176 200 204 177 217 237 205 104 214 168
155 157 202 156 220 154 221 222 158 201 203 199 160 225 152 219 231 162 151 232 161 200 204 198 215 223 205 218 159 163 153 210 227 164 224 209 226 207 195 233 178 150 177 214 166 392 165 197 176 148 147 196 217 179 230 229 208 206 211 391 180 216 389 181
156 202 155 157 199 158 160 201 220 203 198 200 161 159 154 221 162 152 222 205 178 204 219 177 197 195 164 163 151 179 225 176 196 166 153 207 180 231 210 209 181 215 232 165 206 223 218 194 147 175 182 227 192 208 150 191 148 617 224 214 167 168 193 392
157 155 158 156 154 152 202 162 160 222 151 220 161 199 163 225 221 153 201 164 203 159 223 198 232 166 165 231 150 147 219 200 148 177 176 224 227 392 178 205 204 179 146 215 218 226 197 210 168 195 391 144 149 209 233 196 207 167 181 104 229 180 389 175
158 157 162 160 161 156 152 155 164 163 154 159 166 151 202 153 199 176 165 177 198 147 201 222 220 178 148 225 179 221 168 150 146 203 200 223 167 104 175 392 144 169 197 181 232 205 224 219 180 231 182 227 204 195 105 145 196 149 139 171 103 391 174 191
159 177 160 178 179 198 161 176 181 199 180 182 175 197 158 156 166 200 191 162 167 164 174 157 201 192 196 202 185 155 172 186 195 152 171 168 163 169 183 205 189 165 173 190 203 193 194 220 184 154 153 170 206 187 204 151 147 18 29 631 103 146 207 221
160 159 161 158 156 199 177 198 157 178 162 176 179 166 155 164 202 201 152 200 181 197 163 180 175 154 167 182 220 165 203 196 153 168 151 205 191 195 169 174 147 192 222 221 204 171 172 146 185 148 225 194 219 104 186 206 207 193 150 183 190 223 189 103
161 160 166 162 158 176 164 177 159 163 152 157 156 165 179 167 168 178 198 175 199 169 153 155 147 181 146 154 151 202 182 104 171 201 148 174 172 180 197 200 103 105 144 170 220 150 191 145 222 185 203 173 196 225 100 223 221 192 102 183 205 195 106 29
162 163 164 152 158 161 165 153 166 157 147 160 151 176 146 154 148 156 168 155 159 177 104 150 144 167 169 199 202 145 223 105 392 179 225 222 198 178 139 175 103 143 149 220 201 171 106 224 221 107 181 102 200 141 203 170 391 182 232 227 142 172 100 197
163 162 153 165 152 164 147 148 146 151 158 166 144 161 150 104 157 168 154 145 160 176 139 143 392 105 223 149 156 155 169 167 177 159 225 141 107 106 103 142 222 224 391 102 202 199 393 179 175 138 171 140 227 198 110 220 108 100 178 128 170 232 221 127
164 162 166 165 163 161 168 152 147 146 176 158 153 104 160 169 167 148 177 144 105 151 157 159 145 103 150 156 154 175 171 106 179 143 155 102 107 170 139 100 178 199 198 172 392 223 142 202 149 110 141 182 174 181 225 222 101 108 201 220 29 109 173 99
165 146 163 164 147 104 162 153 166 144 168 152 148 145 105 161 151 158 143 169 176 150 106 103 107 167 139 102 142 157 160 141 154 177 149 392 110 100 159 108 171 223 170 156 155 175 109 101 127 128 140 179 225 138 172 393 126 391 222 178 199 224 202 99
166 164 176 168 161 167 162 165 169 177 163 160 158 104 146 159 103 175 105 152 171 147 179 153 170 172 157 100 144 145 102 178 148 174 156 106 151 182 198 181 199 29 107 173 154 155 150 101 143 110 32 99 180 185 202 183 30 142 139 197 191 28 98 201
167 169 171 176 175 166 168 170 172 177 103 174 161 29 164 100 173 179 159 182 32 105 165 104 30 162 102 160 99 28 183 181 178 163 185 101 146 158 106 19 98 33 31 147 198 152 110 145 18 191 180 186 184 153 144 34 26 96 107 156 157 199 90 197
168 169 166 103 105 104 167 164 165 176 146 102 100 170 171 106 163 161 162 145 147 177 144 101 175 110 107 172 153 152 99 158 32 148 160 159 29 143 98 179 109 142 108 174 173 30 151 111 182 157 90 150 33 178 139 141 113 181 28 96 156 125 126 127
169 167 168 103 170 171 166 100 176 105 102 172 104 175 164 32 99 29 165 101 177 161 106 146 30 174 173 110 98 162 163 145 179 147 159 33 28 107 182 160 144 90 158 96 31 111 109 183 152 153 178 181 34 108 185 148 19 143 97 142 26 113 198 89
170 171 32 100 169 29 167 103 99 172 30 168 33 101 98 173 102 175 28 31 176 105 96 174 166 34 90 26 110 177 104 19 106 97 183 164 111 182 179 165 93 161 35 95 27 185 146 20 18 89 109 159 25 145 107 162 181 24 163 94 38 112 184 160
171 170 172 167 169 29 175 173 32 174 30 176 100 103 168 28 99 166 177 183 182 31 33 179 19 105 102 185 101 98 161 26 34 164 159 18 181 104 96 27 165 20 178 184 160 106 186 162 110 90 146 191 35 15 163 97 25 24 180 21 158 111 95 17
172 173 171 174 175 29 167 28 170 183 30 182 169 19 176 185 32 177 179 18 31 181 184 26 100 166 168 20 103 99 27 186 159 33 178 15 34 191 161 17 21 180 187 164 98 24 160 101 105 102 189 25 23 96 35 198 192 165 16 104 162 197 13 188
173 172 28 174 183 29 19 175 171 18 185 182 30 20 184 170 26 27 167 31 15 32 186 21 17 179 181 177 169 176 187 24 191 23 34 33 99 25 16 178 100 189 159 13 166 103 168 180 35 14 188 12 161 192 38 8 22 98 96 198 160 40 39 101
174 175 183 173 182 172 185 179 18 181 184 171 186 28 177 19 29 167 191 176 15 178 159 170 187 180 189 20 169 30 17 192 166 27 21 32 26 161 31 198 197 160 188 168 16 14 631 190 103 100 23 164 99 632 24 13 33 34 798 12 199 162 196 158
175 174 172 182 177 179 167 176 171 173 181 183 185 159 178 169 29 166 170 161 28 191 186 184 18 180 168 160 19 198 30 164 32 103 15 197 189 192 187 100 162 158 20 31 199 165 99 26 17 27 105 156 163 21 190 104 33 188 102 200 196 631 157 34
176 177 166 167 161 175 159 164 169 179 168 160 171 162 172 178 174 182 158 165 181 170 163 103 198 173 152 104 105 156 29 146 185 157 199 180 100 183 147 191 153 197 102 32 186 28 155 30 145 144 151 106 184 99 200 148 202 192 154 18 101 201 19 189
177 179 159 176 175 178 161 160 181 182 167 166 198 174 172 180 164 158 171 169 191 162 199 185 197 168 156 173 183 186 192 157 170 165 163 200 184 152 29 189 196 103 201 202 155 18 28 104 187 190 195 146 105 153 147 100 19 15 193 32 154 30 205 194
178 179 181 198 159 180 197 177 182 191 160 192 199 175 200 196 176 161 185 186 174 189 156 190 195 193 201 158 183 194 184 167 166 205 172 187 202 631 157 173 162 206 164 171 630 155 18 203 15 627 169 188 204 625 632 220 168 207 628 152 163 29 19 165
179 178 177 181 159 182 175 180 198 176 191 174 160 185 197 161 186 167 192 172 183 199 166 173 189 184 171 200 196 158 156 190 187 169 164 18 162 168 193 15 201 195 29 631 170 157 28 19 202 194 188 205 155 163 165 630 152 632 103 206 17 30 203 20
180 197 191 192 181 178 198 179 190 196 182 189 186 193 159 185 200 177 631 199 194 195 187 630 184 174 175 160 183 206 632 188 205 625 628 627 201 176 161 156 15 629 18 634 172 173 202 158 167 633 207 626 798 14 204 617 166 624 203 618 171 157 638 155
181 182 179 178 191 180 185 186 192 159 197 177 198 175 174 189 184 183 190 187 176 160 196 199 193 172 631 173 200 18 161 15 167 188 630 195 194 171 632 166 156 19 201 158 28 205 29 14 169 17 206 628 629 164 798 162 625 202 627 634 16 633 170 157
182 181 185 179 174 175 191 186 183 178 177 180 184 159 172 173 189 192 18 187 176 197 198 15 167 171 19 190 160 28 161 631 29 188 166 17 196 199 169 193 632 170 20 14 200 630 16 21 168 798 30 158 164 156 195 194 27 162 633 32 26 634 31 201
183 185 18 174 184 173 182 19 15 186 172 28 175 187 17 20 181 191 29 21 179 189 171 16 27 14 188 177 180 178 26 167 30 192 13 176 12 31 23 170 631 798 159 632 24 190 32 800 197 169 198 22 633 799 25 8 166 630 34 161 160 33 634 193
184 186 15 185 187 18 183 189 188 182 17 191 174 14 16 19 181 173 798 632 631 21 192 20 180 175 179 28 172 12 190 633 800 13 178 799 630 634 27 177 197 29 797 23 171 193 629 159 801 803 26 22 198 167 176 635 30 24 196 8 11 31 9 796
185 183 184 186 182 174 18 191 181 187 15 189 173 175 179 180 172 19 192 178 188 17 177 28 631 14 16 20 190 632 159 21 197 171 29 798 176 167 198 630 27 633 12 193 13 800 634 26 170 196 30 160 799 161 23 169 629 31 166 199 797 200 32 24
186 184 185 187 189 191 182 183 15 181 188 192 18 180 631 174 190 632 179 14 178 798 17 175 630 173 197 16 633 19 193 177 634 172 198 159 629 21 28 20 196 799 12 800 797 628 176 13 171 635 29 194 167 200 27 160 199 625 195 801 803 161 638 795
187 188 186 184 189 15 632 14 631 185 798 191 18 16 633 183 192 17 190 182 630 634 181 799 180 174 800 797 629 12 21 19 193 173 179 635 178 197 20 13 801 175 803 628 795 796 28 172 196 177 198 638 636 159 27 22 11 625 194 23 791 29 637 9
188 632 187 798 633 14 631 189 15 634 186 184 799 16 797 630 800 629 190 185 191 17 635 18 192 12 795 801 183 796 180 182 803 181 193 636 21 628 13 638 174 19 791 794 197 20 637 793 11 178 173 179 802 625 644 804 22 645 639 196 175 9 28 194
189 186 187 631 191 192 190 188 632 184 630 180 185 181 15 182 193 634 798 633 629 197 14 183 178 18 179 628 174 196 16 635 17 198 194 799 797 625 175 159 638 177 173 800 195 19 627 200 795 12 21 172 639 636 624 206 199 637 20 801 796 28 626 13
190 192 193 630 631 189 191 180 628 629 197 632 196 625 194 186 634 187 188 181 627 178 638 195 633 198 624 639 184 635 185 206 182 626 200 798 179 15 637 14 618 205 159 199 183 623 622 636 797 174 640 617 18 795 177 799 201 620 207 175 16 644 160 658
191 180 181 192 186 189 182 185 178 190 197 179 187 184 631 193 198 183 174 630 188 196 159 632 177 175 15 18 194 200 629 199 195 173 634 628 798 14 633 160 172 176 625 17 16 627 19 206 161 167 205 201 635 171 28 156 638 799 21 797 20 166 624 626
192 190 180 191 197 189 193 631 181 196 630 186 178 198 194 187 182 185 179 632 628 195 184 188 629 200 625 627 159 634 206 199 177 183 174 15 633 205 798 175 626 624 638 18 160 635 639 14 201 618 617 207 176 156 173 16 161 172 637 622 17 797 204 202
193 190 194 192 196 625 628 630 627 197 180 631 195 206 629 191 189 626 624 200 639 638 198 618 632 181 178 634 205 186 617 622 187 188 199 620 207 623 635 179 182 633 637 201 185 159 184 640 204 658 798 619 615 616 636 177 208 160 203 15 621 156 14 202
194 196 206 627 195 193 625 200 626 197 618 205 617 190 628 207 192 624 180 620 198 630 622 204 201 199 616 639 191 208 178 615 631 629 203 189 619 181 209 638 623 202 159 614 179 156 621 658 186 632 634 613 160 220 210 211 182 219 604 187 637 640 635 177
195 196 206 205 200 194 207 627 197 617 201 204 199 193 198 618 625 203 180 626 192 208 209 202 190 616 178 620 156 628 624 220 191 159 615 181 210 622 219 160 630 211 179 155 613 614 189 619 631 639 221 157 177 629 182 215 158 186 609 638 161 214 623 604
196 195 194 197 200 193 206 205 198 192 180 627 190 199 625 178 201 207 617 191 618 626 628 181 204 630 159 189 624 631 203 179 202 156 160 620 208 182 186 629 616 209 622 177 639 220 615 632 185 638 187 155 219 634 210 161 619 158 188 157 623 184 175 211
197 180 196 198 192 178 200 191 193 181 195 194 190 199 179 159 205 206 189 182 201 627 160 186 177 631 630 625 156 185 628 207 202 204 187 617 175 203 161 626 184 618 174 629 632 176 158 624 188 183 155 220 157 634 209 639 208 15 638 620 166 622 18 616
198 178 199 197 159 200 180 160 179 196 181 201 156 177 195 192 191 205 202 161 182 194 158 193 176 190 206 203 157 155 175 204 189 186 220 185 207 174 162 627 166 164 617 631 625 167 630 184 183 152 187 221 219 209 154 628 172 618 163 626 208 171 173 210
199 198 200 201 156 202 160 159 205 197 178 195 203 155 196 157 220 158 204 180 161 179 177 207 194 181 206 221 192 219 162 191 209 176 193 154 617 182 210 152 222 627 190 166 164 208 175 215 163 618 625 189 151 186 616 225 185 231 211 174 167 218 153 626
200 195 199 205 201 196 198 197 194 206 204 203 207 202 156 178 180 159 193 160 617 627 220 192 155 209 181 179 208 618 190 191 219 625 157 158 177 210 626 616 221 161 182 628 189 211 620 630 215 624 176 631 613 186 615 162 154 222 622 175 214 185 614 152
201 202 203 199 200 205 204 156 220 195 155 207 198 219 209 221 196 157 160 206 210 197 194 158 208 617 159 178 215 222 180 154 211 161 627 214 616 218 618 193 179 231 177 192 181 613 162 152 225 232 191 213 625 190 626 212 176 216 217 620 151 615 164 614
202 220 201 156 155 203 199 157 221 219 204 200 205 158 222 160 154 198 210 209 215 207 195 231 159 218 225 161 152 196 162 197 232 178 214 208 206 151 211 617 194 177 163 180 179 233 164 227 223 217 153 176 213 216 616 226 181 224 166 613 627 192 618 212
203 220 201 204 202 219 205 209 210 221 207 155 156 199 200 215 208 195 214 211 218 157 222 617 206 231 198 196 616 613 160 154 213 158 194 216 197 217 212 232 225 618 159 233 627 178 609 614 161 180 152 612 615 162 253 193 227 226 251 620 151 252 626 230
204 207 209 205 203 208 201 210 219 617 195 220 200 211 202 206 616 215 613 199 221 214 196 194 618 156 155 212 213 627 614 218 198 609 615 197 620 216 612 157 626 222 231 217 160 193 625 253 610 178 158 604 180 159 619 605 154 570 622 233 192 232 624 252
205 195 207 204 200 201 206 203 617 196 194 199 209 208 202 627 220 197 618 198 616 210 219 156 211 193 155 613 626 625 221 620 180 178 615 215 160 192 614 159 214 157 190 624 609 212 622 628 158 181 213 191 218 619 179 222 604 177 612 161 630 231 216 154
206 194 195 627 617 618 205 207 196 626 200 625 204 193 620 616 208 197 201 624 615 622 209 628 199 203 198 190 619 192 614 180 613 211 202 210 639 630 178 219 604 220 621 609 623 156 191 638 629 631 658 181 605 602 159 189 212 160 155 215 214 221 179 659
207 204 205 617 208 209 206 616 195 203 618 201 200 210 211 613 194 627 196 219 615 614 620 220 202 199 626 609 212 215 214 625 197 213 198 221 193 619 156 612 622 604 155 624 605 610 218 216 180 628 192 178 253 190 570 160 621 157 602 217 159 606 222 231
208 616 209 207 613 211 617 204 210 614 609 205 212 615 618 206 203 219 612 214 213 195 620 610 215 201 604 605 627 200 194 220 619 570 626 253 216 202 196 611 221 218 622 606 199 625 607 217 602 601 571 252 624 608 621 156 155 197 193 569 198 251 254 231
209 210 204 208 211 207 219 203 613 214 205 616 215 617 212 213 220 201 609 221 206 614 202 195 612 216 218 200 618 615 253 217 199 610 570 194 155 620 156 196 627 231 252 605 604 251 222 611 233 626 198 619 157 197 254 571 232 569 625 250 622 606 193 607
210 209 219 215 214 211 204 203 213 208 218 212 220 216 613 221 207 217 205 201 202 616 253 612 609 231 617 252 251 233 155 614 570 222 200 195 206 156 199 250 610 232 618 615 254 237 157 611 230 194 569 196 225 605 154 256 249 571 226 620 627 234 604 198
211 613 212 209 208 210 213 214 609 612 616 204 207 215 219 614 253 216 570 610 617 203 205 218 252 615 611 217 605 220 221 571 618 201 206 604 251 569 254 620 195 202 608 607 200 606 231 233 619 256 250 572 627 194 255 155 573 199 626 601 196 249 222 156
212 612 213 211 613 253 570 609 214 210 216 610 209 208 252 611 571 569 614 215 616 254 219 217 251 605 204 207 218 608 572 256 617 255 607 615 203 604 573 567 568 606 250 205 221 220 249 618 233 247 620 590 206 574 201 257 231 576 575 601 248 619 565 202
213 214 212 216 253 211 252 210 612 215 570 217 613 251 209 254 218 219 609 208 569 256 610 250 571 611 204 616 249 255 233 221 203 614 207 220 231 237 572 247 234 248 568 617 605 608 567 257 205 573 201 230 202 615 245 607 232 604 222 565 236 260 235 206
214 215 213 216 210 218 217 219 211 212 209 253 252 251 221 613 208 612 203 204 233 220 231 250 570 254 609 207 237 256 249 616 202 222 201 232 234 569 205 230 610 614 617 155 571 611 255 226 248 236 247 245 235 225 156 200 206 227 195 238 605 615 199 572
215 214 219 218 210 217 216 221 213 209 220 231 203 211 233 204 212 251 222 252 202 253 250 232 208 237 613 201 155 207 230 205 226 612 225 234 249 570 156 609 616 254 227 154 236 157 256 617 199 238 200 235 229 614 195 245 569 206 610 224 248 255 158 223
216 214 217 213 251 252 253 215 218 250 212 210 254 211 233 219 249 256 237 570 612 209 234 231 221 613 248 569 255 230 247 245 208 220 609 203 236 204 235 232 571 257 226 222 610 611 207 568 246 238 616 260 244 202 572 614 567 201 227 155 205 565 225 241
217 216 218 251 250 233 215 214 237 252 213 231 234 249 230 219 210 253 221 236 256 232 235 226 245 212 254 211 248 238 220 222 209 247 203 227 570 244 612 229 246 225 613 255 204 241 240 569 208 202 239 155 257 228 260 609 224 154 201 262 207 243 571 242
218 215 217 231 233 214 221 219 216 210 232 237 250 251 220 230 213 222 226 203 252 209 234 211 236 225 227 253 202 249 155 212 238 204 235 229 154 201 208 245 256 613 224 254 157 156 207 612 240 248 228 205 570 223 244 239 609 247 241 199 616 389 246 200
219 215 210 220 203 221 209 214 218 204 202 211 201 231 216 213 217 155 207 208 222 205 233 212 156 613 232 199 200 157 251 616 617 154 253 225 195 252 250 237 612 226 230 206 609 227 158 570 614 198 160 196 234 194 618 249 236 254 224 229 610 238 223 615
220 221 202 203 219 155 201 156 222 215 204 210 157 231 218 209 199 205 154 214 200 232 207 225 158 160 211 208 233 217 195 198 216 213 227 152 226 206 617 151 196 162 159 223 161 613 230 212 224 197 616 237 194 178 251 250 229 163 153 253 252 164 177 618
221 220 219 222 231 215 218 155 202 203 232 210 225 154 233 201 214 157 156 217 204 209 226 227 216 230 199 205 158 213 211 237 224 207 223 200 151 208 229 250 152 251 160 238 212 236 195 162 613 252 198 234 253 617 161 153 389 392 228 206 616 163 159 235
222 225 232 154 231 221 155 227 220 157 226 223 224 202 218 233 151 219 156 215 229 230 203 152 158 392 201 217 389 237 238 391 153 210 150 162 214 228 199 236 163 160 204 216 388 209 148 250 161 149 390 240 205 164 147 200 394 234 251 213 235 379 165 211
223 224 392 225 391 151 227 150 154 389 149 222 232 153 229 152 394 226 148 390 393 388 157 231 228 163 139 155 147 395 386 162 158 230 221 238 138 144 233 380 165 220 156 379 164 146 202 387 240 396 218 141 385 236 143 237 140 161 384 160 376 219 145 215
224 227 223 389 225 391 229 392 232 226 388 222 390 228 154 151 394 150 231 149 238 230 386 393 395 153 380 379 233 152 240 148 221 157 236 155 387 237 139 218 163 376 138 147 220 158 385 384 378 162 239 396 235 381 377 202 156 217 215 144 219 234 165 250
225 222 227 232 224 223 154 231 226 151 229 221 392 155 389 157 391 152 230 150 233 220 153 228 218 238 158 202 388 156 149 390 148 394 219 237 162 163 215 236 203 217 240 147 393 379 201 386 139 160 380 164 395 210 161 165 250 214 199 235 234 216 144 239
226 229 227 230 232 238 231 233 228 224 225 236 237 222 240 389 388 223 218 379 235 221 234 217 391 250 239 154 390 378 380 215 392 241 394 220 151 155 251 219 377 376 245 216 386 249 242 214 157 244 150 374 387 202 149 210 395 152 381 203 153 252 393 372
227 224 226 232 229 225 223 389 222 231 230 228 238 391 388 154 233 392 390 236 151 240 237 221 379 394 218 150 155 380 157 149 386 235 220 152 217 239 153 378 215 234 395 250 393 376 219 387 148 202 377 158 156 163 241 381 203 162 214 139 216 251 384 147
228 229 388 379 238 240 389 226 380 390 227 378 230 236 376 239 224 377 232 391 387 386 235 394 237 381 233 225 374 223 375 242 241 231 372 382 234 395 384 392 222 383 250 244 371 245 393 373 385 218 307 364 154 149 217 370 151 150 243 221 249 304 365 309
229 228 226 227 238 389 224 388 230 232 240 379 236 225 390 223 391 233 231 237 380 222 239 378 394 235 376 392 386 377 387 154 234 218 241 250 395 381 221 151 217 242 374 150 149 393 384 375 372 245 382 244 215 155 385 220 251 383 157 249 152 153 219 216
230 238 226 237 236 233 229 232 231 235 240 227 234 228 250 218 217 239 379 225 224 222 241 245 388 378 251 389 249 221 244 215 216 242 223 377 214 390 380 374 219 154 391 376 246 252 220 243 248 210 155 213 256 392 394 372 386 151 375 387 304 203 307 202
231 232 233 218 222 221 226 230 225 227 215 217 237 219 220 229 154 238 224 155 236 214 250 216 210 223 202 203 234 251 157 228 235 389 240 213 156 151 209 201 249 204 388 252 391 392 379 211 245 239 158 152 253 390 212 241 199 150 378 205 153 244 207 208
232 231 226 227 225 222 230 233 229 224 221 218 223 154 238 237 228 236 389 155 220 217 215 219 391 151 388 240 157 392 250 202 235 234 379 390 214 203 216 152 156 210 150 251 239 394 158 153 380 378 201 149 249 245 241 213 386 162 209 148 204 163 252 376
233 237 230 231 218 217 226 232 250 236 238 234 215 251 235 216 227 221 229 222 214 249 225 219 240 245 228 252 224 220 239 210 213 241 244 379 154 248 256 223 389 155 253 388 203 378 246 202 242 209 211 212 254 247 243 157 391 204 390 374 377 201 380 151
234 250 235 245 237 249 236 244 251 241 230 233 246 248 217 238 239 243 240 256 242 252 216 218 226 262 247 303 231 378 229 228 232 379 260 261 374 304 254 215 214 302 253 213 227 257 263 255 307 377 221 264 300 222 388 219 372 225 210 305 224 376 212 301
235 236 234 241 237 245 239 244 238 240 250 230 242 249 243 246 378 233 374 379 226 228 251 248 217 229 304 303 262 377 307 231 232 218 302 372 256 227 247 216 388 252 376 261 375 260 380 305 263 215 389 373 306 224 300 214 225 301 254 222 308 390 257 221
236 235 238 237 230 240 234 239 233 226 241 250 228 229 245 379 378 244 242 249 232 217 231 227 374 251 218 243 388 377 246 248 224 389 376 216 225 380 372 304 222 307 215 252 303 390 262 256 221 375 214 223 247 302 391 381 373 219 387 213 261 382 386 394
237 236 230 233 234 250 235 238 217 226 245 249 251 218 231 240 232 239 241 229 244 216 228 227 215 248 252 246 379 378 242 214 222 221 256 243 225 224 213 219 388 374 247 262 389 253 377 210 254 303 220 304 223 376 380 260 154 261 390 307 372 212 302 257
238 236 230 240 228 229 226 237 379 235 239 233 378 227 388 234 232 241 231 389 250 224 242 377 380 374 245 376 244 225 390 217 218 222 249 223 372 391 251 243 375 387 381 246 394 386 221 307 215 304 216 382 154 392 248 373 214 252 371 395 303 219 384 262
239 378 240 242 241 374 235 236 379 238 377 244 228 372 234 243 307 230 237 245 304 376 375 229 388 226 373 380 246 250 233 308 302 249 303 306 382 371 381 227 389 262 305 309 390 232 248 387 251 217 231 224 370 316 383 301 386 218 300 298 263 225 261 311
240 379 239 238 378 228 236 235 377 229 230 241 242 374 388 226 376 237 380 234 372 244 375 227 233 389 245 390 307 232 381 250 243 224 382 387 373 304 231 386 371 249 246 391 225 394 217 308 383 218 223 309 251 370 222 303 384 302 306 248 395 262 392 305
241 242 244 239 235 243 245 374 236 304 234 378 240 246 307 303 238 237 302 379 249 377 262 372 250 230 248 305 306 228 373 233 375 308 301 300 376 229 226 263 251 261 247 298 217 388 256 260 380 316 371 309 299 264 317 232 382 227 231 252 265 218 381 216
242 241 374 239 307 378 304 243 244 372 235 240 377 379 236 245 302 373 306 308 303 375 246 238 234 305 376 228 237 262 230 309 371 316 301 249 250 298 380 382 300 229 388 248 317 226 381 263 311 233 370 261 299 312 251 315 387 297 247 383 227 390 310 217
243 244 303 304 302 241 246 242 262 245 305 307 235 300 301 239 263 374 306 234 248 261 249 298 378 299 236 240 264 265 250 372 260 237 247 308 238 377 317 373 283 316 379 256 230 251 282 268 375 257 297 296 233 228 266 281 259 309 376 217 252 315 226 311
244 245 243 241 246 235 234 303 242 262 249 304 239 248 302 236 250 237 374 261 240 307 263 378 300 247 238 305 251 260 301 230 256 306 264 233 379 372 377 217 299 265 298 252 257 228 226 308 373 229 216 254 268 375 218 255 376 259 317 316 231 283 258 232
245 244 234 246 249 235 248 241 250 243 262 237 236 303 251 247 239 242 256 261 260 230 304 302 217 238 233 240 252 263 257 378 374 300 216 264 254 307 218 255 226 301 305 379 265 228 253 231 229 377 306 299 214 372 268 259 213 258 232 215 298 565 227 568
246 262 244 245 303 248 243 261 249 241 234 263 247 260 302 235 300 264 304 250 256 242 301 257 251 265 239 236 237 305 299 268 252 259 307 374 255 254 298 258 240 217 306 238 230 378 266 233 216 565 564 282 267 281 283 253 372 568 379 279 377 218 269 226
247 260 248 256 257 255 261 249 254 262 258 246 252 565 264 251 245 259 568 250 263 234 564 268 253 244 303 569 216 567 562 243 265 217 300 235 570 563 269 566 213 237 267 266 572 241 553 571 302 561 214 236 212 576 233 612 299 301 218 304 552 242 279 230
248 247 249 256 246 260 245 262 261 257 251 234 250 244 252 254 255 303 264 263 243 235 258 241 259 237 217 216 565 253 300 268 568 302 236 265 564 569 233 242 304 213 239 230 301 214 218 266 570 567 299 562 267 238 269 305 240 563 212 215 566 571 572 553
249 248 250 245 251 234 256 246 247 252 244 237 235 217 262 216 260 254 236 261 257 241 233 243 255 253 303 230 218 213 214 239 238 264 263 242 215 240 258 231 569 302 568 565 226 304 300 570 259 212 378 232 268 210 265 374 229 219 612 567 564 228 211 301
250 234 251 249 237 217 245 233 235 236 216 252 230 248 218 256 244 246 238 241 247 214 231 215 226 213 254 253 239 240 232 243 262 260 242 255 229 257 219 221 261 210 303 227 212 228 378 222 379 570 211 569 374 304 225 220 263 302 612 264 209 568 224 258
251 252 250 216 217 249 256 234 253 254 248 237 213 214 218 233 245 247 215 235 255 236 246 212 230 257 244 570 231 260 210 569 219 211 612 262 238 241 261 226 221 568 232 209 243 571 565 613 239 303 240 258 567 220 609 222 572 264 229 242 611 227 203 208
252 251 253 254 216 256 213 217 249 250 255 214 570 247 212 248 569 257 612 215 218 234 211 568 245 571 237 260 210 233 565 567 246 613 572 219 611 609 235 209 258 261 610 244 231 236 262 230 208 221 573 566 562 576 608 259 264 241 204 238 232 564 226 220
253 252 213 570 254 212 216 612 569 214 251 256 571 255 211 217 613 611 609 210 215 610 572 568 249 247 250 567 257 218 209 248 208 573 219 608 565 614 260 234 233 616 576 566 237 605 258 245 607 204 575 562 221 574 207 231 203 246 261 220 590 604 606 230
254 255 256 252 253 569 570 568 257 247 251 216 213 571 567 565 248 249 572 212 612 260 258 250 217 214 611 566 562 573 576 261 211 245 610 234 609 259 564 246 613 215 608 575 262 218 563 210 561 264 237 574 233 244 209 268 235 560 219 263 553 607 577 208
255 254 568 257 565 256 569 247 567 258 260 252 253 562 572 248 566 570 571 564 259 251 576 249 261 563 561 573 216 213 612 264 611 212 575 262 250 246 553 268 560 269 245 217 608 214 577 234 574 610 263 558 267 554 609 211 244 559 552 303 613 265 266 588
256 247 254 248 252 255 249 257 251 260 253 250 216 568 245 569 261 246 565 258 234 217 262 213 570 567 264 259 244 214 237 212 571 572 564 235 562 612 263 303 218 233 566 268 243 215 236 241 563 611 576 211 230 573 210 300 265 561 269 553 613 609 302 610
257 247 260 255 258 565 256 568 254 248 259 261 564 264 562 567 569 252 249 268 262 563 566 246 269 251 553 253 263 561 572 267 245 576 570 571 265 250 303 266 216 234 554 244 552 300 560 558 213 573 217 575 243 612 212 270 611 279 577 559 235 302 299 214
258 564 565 259 257 562 260 563 568 255 553 269 247 268 264 561 261 566 267 567 256 554 552 254 248 558 266 569 576 263 262 560 572 265 270 559 246 252 551 249 279 571 577 555 556 575 253 300 573 303 570 271 251 557 245 549 519 281 299 550 578 244 541 280
259 564 258 268 269 264 267 260 553 257 261 266 565 563 552 247 265 263 562 270 554 255 279 262 568 561 248 256 271 551 300 566 558 281 246 567 303 254 555 280 549 299 272 560 556 249 550 569 576 559 301 245 541 282 302 572 252 243 557 244 273 286 251 577
260 247 261 257 248 264 258 259 262 256 255 268 246 263 565 564 249 254 303 265 568 245 267 300 269 266 252 244 562 251 563 553 243 234 250 567 569 302 299 566 253 279 561 301 552 235 270 241 281 216 554 572 570 217 304 576 237 571 558 305 271 213 282 280
261 264 260 262 263 247 248 246 268 303 259 265 257 300 258 266 256 245 249 243 244 267 564 302 299 255 301 565 269 279 281 254 234 568 553 304 241 251 250 305 252 282 563 270 235 562 298 280 552 283 271 242 567 569 237 253 272 566 554 561 286 236 306 239
262 246 303 261 263 248 264 300 260 243 244 245 302 247 265 249 301 268 299 257 304 241 256 259 234 305 266 235 258 242 250 298 251 267 255 281 282 279 564 239 306 307 283 254 252 565 237 236 269 374 280 568 217 378 240 553 270 317 296 216 286 238 230 233
263 300 265 264 262 261 303 299 268 301 302 266 246 260 243 281 259 279 282 248 267 305 247 244 298 283 304 245 257 280 258 269 564 249 286 241 256 270 271 306 285 272 284 296 242 234 565 553 255 235 307 317 552 297 250 278 563 254 251 239 568 374 287 562
264 261 268 263 265 259 260 262 266 300 267 258 303 247 257 564 269 279 246 299 248 281 301 302 270 553 565 256 280 243 282 255 271 245 244 552 249 563 272 568 562 305 283 298 286 304 254 554 551 234 549 241 561 285 251 252 250 566 567 278 284 235 558 242
265 263 300 266 264 299 268 281 279 261 301 282 262 267 303 280 259 302 283 260 286 298 270 271 272 246 269 305 285 243 564 284 258 248 247 257 278 304 296 244 553 552 287 245 549 275 306 565 297 551 256 249 290 273 563 317 241 277 276 255 295 554 242 307
266 279 268 267 265 281 264 270 280 271 259 269 263 272 299 300 261 282 286 564 552 553 549 260 258 262 278 551 301 275 303 285 273 283 257 550 554 563 302 247 276 287 284 246 298 565 274 555 548 277 248 541 305 562 243 296 558 288 561 255 290 256 547 0
267 269 268 266 270 259 279 271 552 553 564 264 265 551 549 272 280 258 281 554 263 563 261 260 550 555 273 300 257 565 275 299 541 562 548 286 262 558 282 561 278 247 556 274 303 540 301 568 255 545 276 248 285 547 566 246 283 559 557 542 302 256 539 277
268 264 266 267 259 265 269 261 263 279 564 260 270 258 553 281 300 262 271 552 257 280 299 247 272 563 565 303 551 248 282 554 246 301 549 562 286 255 302 256 568 561 555 550 283 273 275 278 243 558 285 298 245 249 244 566 305 541 254 548 556 567 284 304
269 553 267 552 564 259 270 268 554 563 258 551 266 264 271 555 549 279 558 565 562 561 550 260 556 265 257 541 261 272 263 280 281 566 568 273 540 559 548 557 247 560 255 539 275 262 567 545 300 542 299 248 576 274 256 519 286 547 522 278 577 282 303 254
270 271 267 549 551 269 279 552 266 272 550 273 268 280 553 275 548 259 555 541 281 554 564 274 265 264 278 545 547 563 286 540 276 258 556 263 558 542 0 282 261 299 277 818 300 3 260 539 561 285 562 546 565 287 544 257 543 557 262 4 1 559 283 301
271 272 270 279 549 280 273 275 267 266 551 281 274 278 550 548 269 552 276 268 286 265 547 541 277 553 0 259 555 3 282 264 545 287 818 285 554 564 299 4 263 540 288 300 1 546 542 563 258 261 5 283 556 544 284 289 815 301 260 558 2 817 44 543
272 271 280 275 279 278 270 273 281 276 286 549 274 266 277 267 287 3 0 285 548 282 550 265 551 4 268 288 269 547 818 552 299 5 289 1 284 264 283 541 259 263 545 44 300 553 45 290 555 2 546 564 301 554 7 817 261 815 291 540 296 544 542 298
273 274 275 549 548 547 271 550 272 0 818 270 276 551 545 3 541 546 278 280 1 279 544 815 277 552 267 555 817 542 266 4 540 814 269 286 5 281 2 543 287 813 553 805 554 288 816 268 10 536 556 44 806 285 539 7 265 811 259 537 282 564 767 6
274 273 275 0 818 547 3 276 548 1 549 272 271 550 546 278 817 277 815 2 4 545 5 270 280 544 551 814 541 805 10 279 816 288 286 287 806 7 44 542 6 813 281 543 267 266 555 552 540 811 45 9 285 269 289 41 804 807 11 812 536 767 8 268
275 274 273 276 272 271 0 278 3 549 277 280 818 548 547 270 4 279 1 286 550 5 287 281 288 2 551 266 817 546 545 267 44 285 815 541 7 45 289 552 282 10 544 269 268 555 814 265 6 805 542 41 806 540 284 290 816 299 553 43 543 283 813 9
276 277 3 275 278 4 0 274 5 272 288 287 273 1 44 280 2 286 818 271 7 45 289 285 279 549 547 281 41 817 548 6 10 270 43 290 550 282 815 46 291 266 546 284 40 806 9 805 8 551 267 545 42 47 293 283 22 265 814 299 816 541 544 39
277 4 276 278 288 287 3 44 5 45 289 275 286 272 0 280 285 7 274 41 2 43 290 1 291 46 273 281 271 279 6 284 818 282 293 40 47 42 10 295 549 283 48 817 270 547 8 292 39 266 548 299 296 9 265 22 550 806 267 815 321 294 37 805
278 277 276 286 287 272 280 275 288 4 285 281 3 271 279 289 274 45 273 282 5 44 0 290 284 266 270 291 549 283 1 7 299 2 818 265 46 43 41 293 267 295 548 547 296 268 550 6 300 551 301 47 817 10 292 298 263 48 42 269 40 294 264 552
279 266 280 281 271 272 267 270 265 268 286 282 278 299 264 275 269 263 549 285 300 259 273 276 287 283 552 551 277 261 301 274 284 553 564 550 262 548 288 303 260 298 258 3 302 4 0 290 289 554 296 555 541 547 305 563 257 246 818 295 45 545 247 5
280 279 281 272 286 278 271 266 282 275 285 270 287 265 276 277 267 299 273 268 283 549 284 288 274 300 263 4 264 289 3 269 290 301 0 551 259 550 548 296 552 45 298 5 261 295 44 291 553 547 818 293 303 302 564 262 1 305 541 297 260 555 2 46
281 280 279 282 286 265 266 299 285 272 278 283 271 300 284 268 263 301 287 267 270 264 275 298 277 296 276 290 288 261 302 289 303 259 269 273 305 549 262 295 274 4 297 293 552 260 3 45 291 551 564 294 553 246 550 317 0 243 304 258 548 44 306 5
282 283 299 281 285 284 286 301 298 296 280 300 265 279 287 290 266 278 263 305 295 297 302 272 289 294 303 293 288 317 264 268 277 271 291 318 306 267 262 304 261 276 321 270 275 45 243 4 315 320 246 259 292 46 316 323 269 273 319 260 44 307 549 322
283 282 284 296 298 299 285 301 297 305 286 295 281 300 290 294 317 302 265 318 287 293 280 306 263 279 289 303 321 278 304 315 291 266 320 288 316 319 272 243 323 264 262 277 292 268 307 322 45 261 271 246 46 312 267 308 276 4 244 328 275 270 314 242
284 285 283 296 290 295 282 286 293 294 297 287 298 289 299 291 281 321 301 318 288 317 280 278 305 292 320 300 45 323 277 265 279 322 46 315 302 319 306 272 48 4 263 266 276 44 316 303 43 47 304 324 271 275 49 328 52 264 268 312 5 41 314 262
285 286 284 282 287 290 283 289 281 278 295 296 280 288 293 299 277 291 279 298 45 272 294 301 297 276 265 4 321 300 46 266 292 275 44 271 318 305 317 263 43 48 302 3 323 320 322 5 47 270 268 267 41 274 264 273 306 303 315 7 0 319 42 52
286 285 280 281 278 287 282 284 272 279 277 283 288 290 289 299 276 271 275 266 265 296 4 295 45 291 293 301 300 298 270 3 44 273 267 263 274 268 294 5 297 46 0 264 549 305 321 43 292 302 41 7 318 303 317 48 269 47 261 1 259 2 548 262
287 288 289 277 278 285 286 290 45 4 291 284 276 280 44 282 293 46 281 272 295 5 283 43 275 3 279 41 296 292 7 47 48 271 299 294 0 321 274 42 273 2 266 297 265 298 1 301 40 322 6 270 52 39 300 323 37 318 818 549 267 320 49 263
288 287 45 289 277 4 44 278 291 46 276 290 43 285 5 286 41 7 3 293 47 284 48 280 42 275 295 292 272 282 2 281 40 0 6 39 274 283 1 321 296 279 52 37 271 294 273 8 322 10 818 38 299 36 49 25 297 24 323 53 266 23 22 817
289 288 291 287 45 290 46 293 285 277 44 43 295 284 4 292 286 278 48 47 41 321 276 42 5 282 296 294 283 7 52 280 322 281 3 37 272 39 49 323 40 275 297 320 36 299 279 318 53 2 6 51 0 298 38 274 271 50 325 1 301 324 25 8
290 293 295 291 289 284 285 287 321 294 296 292 288 286 46 45 283 282 48 297 322 323 277 278 318 320 47 43 281 44 298 4 280 52 49 299 317 276 42 301 41 319 324 37 272 315 325 279 5 305 51 50 300 328 7 53 265 275 3 39 306 36 302 266
291 293 289 46 290 292 48 45 295 288 47 287 321 43 322 284 52 285 294 44 42 49 37 323 277 41 296 4 286 278 51 53 320 283 39 36 282 297 50 325 318 5 7 324 276 40 38 280 281 55 54 60 319 3 298 61 317 25 326 299 272 328 35 56
292 48 291 293 322 321 49 52 46 290 47 295 323 289 51 37 50 325 294 53 45 43 320 324 42 288 284 287 36 60 61 296 55 285 318 326 44 297 41 54 56 39 319 328 38 62 283 277 59 286 4 327 332 282 40 315 278 35 63 58 317 7 94 25
293 295 290 291 321 292 294 289 322 284 323 46 48 296 285 320 287 45 49 288 297 318 52 47 283 324 286 43 325 282 319 37 50 51 277 44 42 317 298 278 328 315 53 4 41 326 281 299 61 36 280 60 301 276 39 305 327 314 55 5 62 7 316 54
294 295 318 321 297 320 296 323 293 319 284 290 322 317 315 283 292 324 328 291 298 285 289 314 282 316 325 49 312 305 306 48 301 287 327 46 326 286 329 299 52 288 50 45 311 332 302 281 47 313 308 51 300 61 304 62 348 331 278 349 307 43 280 277
295 293 294 290 321 284 296 291 297 292 323 318 285 320 283 289 322 287 282 317 298 319 46 286 48 288 315 324 45 49 328 299 301 52 325 47 305 281 278 277 43 306 316 50 280 314 326 44 51 4 312 37 300 327 302 42 53 329 265 41 279 276 61 272
296 297 283 284 294 295 298 318 317 282 290 285 293 321 301 305 320 299 315 306 319 323 286 291 316 289 302 287 300 281 322 292 304 328 312 265 324 280 288 314 303 278 307 263 308 46 279 45 311 48 243 277 49 266 325 272 329 262 313 327 52 264 47 373
297 318 296 317 294 315 298 295 283 319 320 284 306 305 316 321 323 301 293 290 312 282 328 285 314 299 322 302 324 304 308 311 307 291 300 292 286 289 313 329 281 287 327 303 373 243 265 325 349 263 49 310 309 326 288 348 280 48 46 242 374 372 332 278
298 305 301 283 296 317 302 299 297 306 282 300 284 304 318 303 294 316 315 285 295 307 243 263 265 281 286 290 308 262 319 320 312 242 293 321 246 244 280 264 279 241 374 266 261 311 287 323 373 314 289 268 372 291 328 278 245 322 239 309 313 272 288 292
299 300 301 282 265 283 281 263 298 302 305 303 284 285 279 286 266 296 264 280 262 268 261 304 243 297 306 317 246 267 272 290 295 287 278 271 260 259 294 244 318 270 307 289 293 248 269 316 245 241 315 288 242 277 247 275 291 321 276 258 257 564 308 320
300 263 299 301 265 303 302 262 264 305 298 282 261 283 281 243 246 266 268 304 279 244 260 306 280 296 286 284 285 248 259 267 245 317 241 247 297 307 242 272 257 271 249 270 269 258 278 564 235 295 234 290 316 287 256 374 318 294 239 308 315 553 250 565
301 299 298 300 302 305 283 303 282 263 265 304 306 296 243 262 281 317 284 297 264 285 246 261 307 286 244 266 279 268 280 316 318 242 241 295 294 315 290 245 308 260 374 248 267 287 259 293 272 278 319 239 247 235 312 320 373 372 321 271 289 249 234 311
302 303 305 301 304 243 300 298 299 306 262 263 244 246 307 242 241 265 283 317 261 282 245 264 374 296 297 316 308 239 248 281 235 284 260 268 372 234 266 249 315 378 373 318 285 247 279 286 236 294 240 280 377 259 312 295 250 311 267 257 256 309 237 375
303 262 302 243 300 246 263 244 301 304 261 305 299 245 265 264 241 248 298 260 242 306 249 307 247 235 268 234 283 282 266 239 281 374 259 257 256 250 317 279 236 296 267 378 297 237 258 251 308 284 316 240 372 280 285 286 255 564 373 238 269 252 377 254
304 302 243 307 305 306 242 303 241 374 244 301 298 308 300 239 246 317 372 316 262 373 378 245 299 235 263 377 283 297 240 234 315 375 296 309 261 265 236 311 282 312 248 379 318 249 264 371 238 376 237 284 250 260 319 281 294 313 247 228 230 382 310 268
305 298 302 301 306 304 317 300 303 299 307 283 243 297 296 316 282 263 242 308 315 318 262 244 284 241 265 374 246 294 373 312 372 281 285 295 311 319 261 239 245 264 286 320 378 309 290 235 266 314 279 377 248 268 321 280 375 313 293 260 234 323 240 371
306 305 307 317 304 316 308 298 302 315 297 301 373 374 242 243 312 311 318 296 372 303 283 309 300 241 299 319 244 294 313 239 314 378 375 282 284 377 310 371 320 246 263 262 295 328 265 245 235 240 285 349 321 323 379 370 369 376 382 281 290 352 261 293
307 374 304 306 308 242 372 373 316 305 243 241 378 302 239 377 309 375 317 311 244 298 371 303 301 312 240 315 379 235 376 297 246 382 310 313 245 300 370 236 318 262 238 296 299 369 234 283 381 319 228 263 380 314 352 237 366 383 388 294 282 230 349 249
308 373 316 309 307 311 372 306 312 374 371 375 310 313 317 304 315 242 377 305 369 370 378 382 352 314 298 297 318 239 319 302 349 376 241 243 351 366 379 301 381 353 240 296 383 244 328 348 303 320 380 329 294 283 235 368 367 300 365 355 350 347 299 354
309 373 371 308 311 310 375 369 372 370 313 352 382 316 312 366 307 377 374 353 376 351 381 383 349 306 378 368 367 315 242 314 365 317 354 304 379 355 380 239 348 350 364 387 358 319 305 240 362 241 347 318 329 297 384 345 243 328 302 363 388 357 298 228
310 313 352 311 351 369 309 349 312 353 371 308 373 370 314 316 348 355 350 366 347 354 368 315 375 372 382 329 345 367 319 346 307 330 328 358 306 317 356 383 343 365 374 377 331 357 318 344 381 362 327 376 320 342 297 378 460 461 304 242 341 364 359 305
311 312 313 310 316 308 309 373 314 315 349 352 369 351 371 317 306 319 307 372 348 370 375 318 329 353 328 374 347 297 350 366 382 355 320 304 305 377 354 368 327 298 330 242 331 294 378 346 296 376 345 367 383 324 381 323 302 343 365 239 301 358 243 356
312 311 313 316 314 315 319 310 308 349 317 318 309 328 348 329 306 373 351 297 352 320 307 369 347 327 371 294 372 305 350 331 324 323 296 298 330 353 375 304 370 374 355 321 346 332 295 366 382 302 242 283 377 301 345 322 354 326 334 368 343 284 341 378
313 310 311 312 349 314 351 352 348 309 316 308 315 369 329 347 350 319 373 353 328 355 371 317 330 370 318 331 346 327 306 354 345 372 366 375 320 307 368 297 343 382 324 356 342 374 367 341 344 294 332 323 334 358 377 305 304 357 383 298 296 365 376 326
314 312 319 328 329 315 349 313 348 311 327 320 318 316 331 310 347 324 317 330 351 323 297 332 294 308 350 352 326 309 334 346 321 306 341 322 373 296 333 369 355 325 295 342 335 343 353 345 62 307 298 305 371 64 293 372 337 370 354 283 284 49 304 61
315 319 318 317 316 312 297 314 320 311 328 294 306 313 308 296 323 329 298 305 349 321 324 310 295 307 348 327 309 373 283 284 304 322 301 293 331 302 351 352 372 290 347 332 326 282 374 330 371 299 325 369 292 285 350 242 375 300 243 291 334 303 49 370
316 312 315 308 317 311 306 307 313 373 318 319 297 314 309 305 310 304 298 372 296 349 374 320 328 294 371 302 375 242 301 352 329 369 348 283 351 243 377 323 370 295 378 321 284 324 241 327 303 382 299 239 300 347 353 282 366 244 376 350 331 293 322 330
317 297 315 318 316 306 298 296 305 319 312 294 308 283 320 301 307 311 304 314 302 295 284 328 321 313 323 299 373 282 300 309 293 290 243 310 285 303 374 372 324 242 329 349 322 327 348 263 241 286 281 371 265 375 291 292 244 262 352 289 378 351 377 239
318 297 319 315 294 320 317 296 323 321 295 328 316 314 312 298 324 306 284 293 283 322 305 290 311 329 327 313 308 301 292 282 285 291 325 349 326 348 307 299 304 302 332 49 310 289 331 373 309 286 300 287 48 50 62 330 347 46 281 351 52 61 303 372
319 315 320 318 328 314 312 323 294 297 324 317 329 316 327 321 313 311 296 322 348 349 295 331 326 306 332 293 325 308 298 310 284 330 347 305 283 292 290 334 351 49 62 309 333 307 373 291 352 50 350 301 61 304 341 64 346 285 282 302 335 369 48 299
320 323 319 318 294 328 321 324 322 315 297 295 314 327 296 317 293 329 325 326 312 292 332 49 290 316 284 291 331 50 348 283 298 62 313 311 349 61 306 48 333 52 285 334 305 289 330 51 64 308 46 282 347 60 63 310 301 59 287 47 299 341 53 335
321 323 322 294 293 295 320 292 324 290 318 291 49 297 296 319 325 284 328 48 289 52 50 46 315 326 317 285 283 51 327 47 314 61 287 45 332 298 329 62 288 37 282 53 60 312 286 43 316 42 305 59 306 331 63 55 301 64 333 299 56 36 44 277
322 323 321 49 292 325 324 320 293 50 294 295 326 52 48 291 51 61 328 290 318 319 62 60 46 327 332 53 297 47 296 37 289 284 59 315 329 63 55 56 314 64 45 333 317 285 43 36 42 331 58 283 287 288 54 334 312 66 298 57 348 316 282 286
323 320 321 322 324 294 328 319 325 318 295 293 292 49 326 327 297 50 315 296 290 332 314 291 329 61 62 48 52 317 284 51 331 312 60 46 289 333 283 64 63 316 59 285 348 334 47 53 298 37 349 313 45 287 330 311 306 56 282 55 288 305 58 337
324 323 326 328 320 325 327 322 332 321 319 329 62 49 50 294 61 318 314 331 333 64 292 334 315 63 293 295 297 348 60 59 51 330 52 312 337 296 48 317 335 349 291 290 341 347 66 313 316 53 58 65 284 56 311 46 339 336 37 55 47 346 73 289
325 50 326 61 49 324 322 62 323 60 51 332 59 63 321 64 292 52 327 320 328 333 56 58 53 48 66 293 55 294 319 329 334 37 331 73 295 291 337 65 318 57 47 46 314 54 290 335 36 74 72 315 94 297 336 330 348 341 296 68 339 289 42 92
326 62 332 325 324 61 327 64 333 63 50 323 328 322 334 59 49 331 329 60 320 337 66 321 335 65 51 319 58 330 314 341 336 292 73 339 52 348 56 294 318 53 293 72 48 55 67 315 68 347 295 57 349 340 338 74 342 37 297 312 346 291 78 313
327 329 332 331 328 324 326 334 333 348 330 314 62 319 320 64 325 323 341 335 347 337 349 322 63 61 315 346 318 312 339 321 313 342 50 336 294 350 49 340 59 65 351 66 311 343 297 60 310 316 317 477 338 292 295 67 293 51 478 345 352 58 296 474
328 319 329 327 314 324 320 323 315 318 332 331 326 348 312 294 321 349 322 325 313 330 297 334 317 333 316 347 62 311 295 64 341 296 49 310 61 293 335 50 351 292 346 350 337 63 308 306 342 290 352 284 298 59 339 60 309 291 51 283 343 52 305 336
329 327 331 348 328 314 330 349 332 347 319 334 324 313 312 320 326 341 333 346 315 350 335 323 351 318 311 342 62 310 64 337 325 316 343 322 294 339 321 352 317 340 297 345 355 63 61 336 477 308 50 49 473 309 65 474 295 353 344 369 296 59 338 306
330 331 347 341 346 348 342 334 329 335 350 327 343 349 332 340 333 339 477 337 351 314 345 473 328 474 355 313 344 336 478 326 64 324 472 310 319 338 312 62 471 352 311 475 481 476 320 356 65 461 63 315 353 67 479 354 325 323 470 369 318 488 61 66
331 330 334 327 329 341 332 348 335 333 347 328 346 337 342 349 326 314 339 64 324 350 340 62 343 336 319 477 351 313 320 63 325 312 323 65 474 338 345 478 473 61 315 355 310 67 311 66 318 322 344 352 59 50 479 321 481 472 471 294 316 49 476 749
332 327 333 326 334 62 64 331 324 329 337 63 325 335 328 61 330 341 339 65 336 348 323 59 50 66 320 314 322 319 347 49 340 60 342 346 349 338 67 321 73 58 318 51 68 315 477 294 72 478 350 312 292 313 343 56 749 52 479 351 474 293 295 297
333 64 334 332 337 335 62 326 331 63 336 327 339 65 341 66 330 61 329 340 67 338 324 325 59 328 68 342 348 73 50 478 347 72 477 346 749 60 479 58 323 314 322 69 49 320 70 319 349 481 474 343 350 51 480 56 78 750 321 74 473 748 476 79
334 335 333 331 341 337 332 330 339 327 64 336 329 340 326 62 342 348 347 65 346 63 338 477 328 324 478 67 66 325 61 343 314 349 350 474 479 59 749 473 481 68 319 323 320 50 351 73 476 345 480 72 322 313 69 471 60 475 58 312 49 344 750 472
335 341 339 334 337 340 333 336 331 330 342 338 477 332 478 64 346 65 327 67 347 479 474 329 62 348 481 326 63 749 343 473 66 476 480 350 475 68 328 471 324 482 349 750 69 61 59 345 314 325 472 72 483 344 73 70 351 748 487 488 485 355 319 470
336 337 339 338 67 65 335 749 340 333 479 64 478 334 341 68 66 69 63 481 480 750 477 332 62 70 72 748 331 342 330 73 326 476 59 482 327 483 474 61 747 346 79 71 744 753 475 78 329 58 751 347 473 325 348 343 485 471 484 324 746 74 487 60
337 336 339 333 335 334 64 65 338 67 341 340 332 63 62 331 66 478 749 479 326 330 327 68 477 342 69 59 72 61 481 329 73 480 346 70 750 325 347 474 324 348 748 476 328 58 343 50 482 60 473 483 78 475 79 350 71 471 314 349 747 74 323 49
338 336 479 67 339 749 478 340 337 480 481 335 750 65 69 477 748 341 68 333 334 483 482 476 64 70 66 753 342 474 744 72 751 63 475 485 484 332 747 331 330 62 487 71 471 73 473 346 79 746 742 488 327 326 752 59 343 486 347 78 756 493 61 745
339 335 336 340 337 338 478 341 334 67 333 479 477 65 749 481 342 64 331 330 480 332 474 476 750 346 66 63 68 69 482 62 327 475 473 347 483 343 326 748 471 329 348 70 72 487 485 73 59 350 753 61 488 472 484 744 324 328 751 325 345 747 349 470
340 478 477 339 335 341 338 342 481 474 336 337 479 476 334 480 330 475 473 346 67 482 333 471 749 331 343 347 65 487 750 483 64 488 472 332 485 350 348 470 327 344 329 345 69 484 68 62 486 748 63 753 66 326 489 349 493 70 467 469 461 751 355 351
341 335 330 342 334 340 331 339 346 477 337 347 333 478 343 336 474 348 332 327 329 338 473 350 64 481 349 479 471 345 476 67 65 475 326 62 472 344 328 351 314 749 480 63 355 482 324 488 66 470 487 313 461 750 319 325 68 61 483 356 69 352 310 485
342 346 341 343 477 474 330 473 340 347 335 350 471 345 331 472 339 334 478 344 348 475 476 337 481 355 349 329 470 351 336 338 333 488 461 327 332 479 487 356 482 462 480 467 64 314 67 313 352 354 328 749 485 460 65 469 353 310 326 489 466 483 62 486
343 346 345 473 342 344 350 347 472 474 355 330 461 477 471 341 356 351 348 470 340 349 475 462 331 354 335 460 488 352 476 334 467 478 353 329 357 339 463 466 313 481 310 487 327 337 368 314 459 469 358 369 333 468 482 338 332 336 464 489 359 479 328 311
344 345 461 472 343 356 473 355 462 350 460 346 471 463 470 474 342 354 357 347 467 351 466 459 353 477 475 488 330 358 464 352 449 359 368 348 341 349 468 469 476 340 487 510 369 458 310 465 331 478 455 450 313 335 489 362 367 360 481 329 366 334 508 339
345 344 355 343 350 356 461 346 351 472 473 347 354 342 460 353 357 352 349 462 474 330 348 471 463 368 358 470 341 477 310 459 369 313 467 359 466 331 475 340 329 488 367 449 366 335 464 362 314 334 311 476 458 360 468 478 312 370 469 309 339 327 487 455
346 343 347 342 350 330 345 341 348 473 344 474 331 477 355 351 349 472 335 340 334 329 471 461 356 339 327 478 352 475 313 314 354 337 470 333 310 332 353 476 462 328 488 481 336 460 338 357 312 467 311 369 487 463 64 368 479 482 326 319 358 466 324 480
347 348 346 350 330 349 343 351 342 331 329 345 341 355 313 314 334 344 327 473 335 352 310 474 477 328 340 312 332 472 353 356 311 354 333 339 461 337 319 471 369 478 315 324 326 475 336 368 357 460 309 64 316 470 320 462 476 338 62 358 481 318 308 488
348 347 349 329 330 331 314 350 346 351 313 327 328 341 342 312 310 334 343 355 345 311 352 319 332 335 315 333 324 344 320 353 326 473 316 340 369 337 477 339 318 474 354 309 356 323 64 62 308 472 317 461 336 325 368 478 373 471 297 294 371 322 321 370
349 348 313 351 347 314 310 350 329 312 352 311 330 346 355 331 328 345 327 319 353 343 369 315 309 316 342 341 354 308 334 344 332 320 356 373 318 371 324 368 335 317 370 473 366 333 461 326 323 357 297 474 472 306 477 358 340 367 372 375 337 294 339 307
350 347 345 346 351 355 343 349 348 344 330 342 352 356 473 354 353 313 310 341 461 331 472 329 474 314 369 477 357 460 368 311 334 471 335 312 327 340 358 462 328 470 309 463 366 475 339 332 459 367 370 319 333 359 478 467 337 315 371 488 476 316 362 466
351 352 350 349 355 310 313 353 347 345 348 369 354 346 311 343 356 330 368 344 312 314 309 329 366 357 342 358 370 331 461 371 367 460 473 341 308 316 373 472 328 315 327 319 362 359 382 474 334 375 365 459 463 335 477 372 462 383 471 332 360 340 317 318
352 369 353 310 351 355 313 354 349 368 309 366 311 370 350 371 345 367 358 347 312 356 348 373 357 308 382 314 375 346 362 365 344 343 316 383 460 372 330 461 329 359 381 315 363 360 459 342 364 331 377 376 319 307 328 473 472 374 463 306 401 327 341 317
353 354 352 368 369 355 366 351 358 367 310 357 356 370 362 345 350 371 309 365 313 359 460 349 344 382 311 383 360 461 459 363 347 343 348 373 375 346 364 312 381 463 308 401 458 457 361 372 314 472 330 376 473 462 316 342 377 449 329 384 387 404 455 402
354 353 368 357 358 355 356 352 460 369 345 367 359 351 362 366 461 459 344 350 360 310 370 463 365 343 363 458 349 457 347 313 346 371 472 462 309 383 449 361 382 348 473 364 311 455 401 456 342 466 464 330 375 381 373 404 412 312 470 467 450 474 471 314
355 345 350 351 354 356 353 344 352 343 357 461 347 368 346 460 349 369 358 310 348 472 313 473 342 330 359 366 459 367 463 462 362 370 311 474 309 471 341 360 329 314 371 312 331 470 365 458 477 449 466 467 363 457 464 382 383 373 475 340 334 335 455 308
356 460 461 357 354 355 344 345 463 459 358 353 359 368 462 350 472 343 351 352 449 473 458 362 346 466 360 367 369 464 347 467 455 470 366 457 471 342 349 310 474 450 456 348 363 370 365 330 361 313 465 454 468 510 488 477 475 447 469 341 412 309 371 453
357 460 358 359 356 354 459 368 463 461 360 362 353 458 355 367 457 344 345 449 455 366 462 363 352 369 361 456 351 365 350 464 472 343 466 450 412 454 370 401 453 310 404 473 383 364 467 346 347 470 447 465 349 371 416 451 405 382 313 471 413 309 342 402
358 368 357 362 359 354 367 360 353 356 459 460 366 363 457 365 458 355 369 361 352 370 463 461 401 345 383 364 456 351 455 404 344 449 412 382 310 371 350 402 462 381 405 309 454 453 384 343 450 464 472 403 349 313 375 413 416 466 387 347 346 399 311 411
359 459 357 360 358 458 457 362 460 368 354 456 361 455 356 463 363 367 449 412 353 461 454 365 453 404 366 355 450 401 416 405 344 464 462 345 413 369 364 352 451 466 370 383 403 411 402 447 351 452 472 435 350 415 465 414 343 417 382 467 384 400 310 399
360 457 362 361 359 363 358 458 412 456 357 367 404 459 368 401 365 405 455 460 354 364 366 403 402 413 453 356 449 353 416 463 411 454 383 400 399 369 370 406 384 461 450 355 414 415 352 408 451 382 385 381 410 452 464 387 345 344 417 398 462 407 371 351
361 404 360 457 412 363 405 362 401 403 456 359 458 402 413 411 358 365 367 364 400 406 399 416 459 368 453 357 455 408 366 414 384 383 410 385 407 398 454 354 460 415 449 134 353 409 387 370 356 463 381 417 396 452 451 397 135 382 450 369 418 395 386 420
362 367 363 360 358 368 365 359 361 366 401 457 357 364 354 404 353 383 458 459 370 412 402 369 460 456 356 382 384 405 352 381 403 355 455 371 399 387 463 400 385 449 461 413 351 453 411 375 309 310 345 416 406 376 386 454 380 344 398 395 350 450 408 373
363 401 362 361 365 360 404 364 367 402 358 457 383 368 366 359 412 403 384 405 399 400 385 357 458 370 381 456 387 354 382 353 459 406 369 398 411 386 413 395 460 371 407 455 380 408 396 356 416 376 352 453 375 397 355 390 394 449 463 410 414 454 309 134
364 401 365 384 383 402 363 387 381 367 385 366 382 362 386 399 404 370 380 395 361 376 368 360 390 400 403 371 394 358 398 375 396 369 388 377 405 457 353 359 412 393 379 406 389 354 397 309 407 357 372 391 228 352 138 373 378 458 456 411 408 459 310 240
365 364 383 367 366 363 401 362 370 381 382 368 384 402 387 358 360 369 361 404 371 353 376 385 380 375 386 354 359 399 357 457 352 309 403 395 377 400 390 412 405 373 372 310 388 398 394 458 459 356 379 355 396 460 351 456 406 378 228 389 308 311 374 407
366 370 367 369 365 368 383 382 353 371 362 358 364 352 381 354 363 309 375 401 310 376 360 357 387 384 373 359 351 355 372 377 380 361 402 356 311 313 308 404 457 386 460 459 349 385 345 350 379 374 378 458 399 312 390 388 412 395 307 461 316 344 403 347
367 366 368 362 365 358 363 370 383 353 369 364 360 354 401 382 359 357 361 352 371 381 457 384 404 402 356 355 387 309 375 459 460 310 458 351 376 412 380 385 373 399 386 456 403 345 377 405 372 313 461 463 311 350 400 455 344 395 349 308 449 390 398 379
368 358 367 353 354 366 362 369 357 365 352 359 370 360 355 356 363 383 460 351 459 371 364 382 310 401 361 457 345 309 458 461 350 381 344 463 375 404 313 349 384 402 311 373 456 412 387 449 455 376 343 347 372 346 462 308 380 377 348 405 472 312 403 399
369 352 353 370 366 310 371 309 368 367 354 351 382 313 311 355 373 375 358 365 383 362 349 308 372 381 357 350 312 356 364 345 376 363 377 316 359 348 347 360 401 314 460 374 387 307 344 380 384 346 343 461 459 378 315 361 379 306 329 457 330 402 458 242
370 366 371 382 369 383 375 309 367 365 381 368 353 373 352 376 372 310 364 377 362 387 358 354 380 308 311 363 384 401 313 351 374 378 379 355 357 307 386 360 312 402 349 316 388 359 390 356 361 242 240 239 385 228 350 404 345 395 306 460 457 399 394 314
371 370 375 309 382 373 372 369 366 377 376 381 383 308 310 352 311 374 365 367 353 378 368 307 380 313 379 387 364 316 312 351 242 354 384 239 362 358 240 306 349 388 401 363 355 386 228 304 390 241 315 314 357 317 350 402 238 360 348 356 305 385 359 243
372 373 375 374 377 378 307 371 308 309 242 376 382 239 379 370 240 381 304 306 241 311 316 380 369 383 310 366 228 243 312 235 388 387 313 238 305 244 352 236 302 317 365 315 367 353 229 364 390 384 386 303 245 298 368 230 234 351 246 301 237 349 389 314
373 372 309 308 375 371 307 374 311 377 316 370 382 310 378 306 369 242 376 312 313 304 352 239 381 366 379 383 317 315 241 240 305 380 353 351 243 349 314 302 365 367 387 368 228 298 244 319 388 235 297 318 364 238 354 236 301 303 348 355 384 390 362 386
374 242 372 378 307 377 239 373 241 375 304 240 308 379 376 243 306 371 309 235 244 382 236 238 228 316 302 305 380 381 370 245 311 303 388 234 246 230 237 317 229 383 312 298 310 387 369 301 262 226 366 313 315 390 250 300 249 389 352 233 386 297 365 248
375 371 372 377 382 376 373 370 309 381 374 378 379 383 308 380 366 307 369 242 239 387 240 365 311 310 388 228 364 367 352 384 316 241 304 353 306 386 390 313 368 238 312 229 236 235 401 389 362 243 351 363 244 354 394 358 305 317 395 385 315 349 402 230
376 380 377 381 375 382 379 387 378 388 383 372 371 228 240 370 374 390 386 384 373 239 364 309 365 366 389 238 229 242 394 307 395 369 308 367 236 241 385 401 391 226 235 230 402 224 227 363 368 310 304 311 362 352 353 237 399 244 393 306 243 316 232 223
377 378 376 375 372 379 374 382 240 239 380 373 381 371 242 228 388 307 309 370 387 383 308 238 241 236 390 229 235 304 366 386 384 369 389 365 364 230 244 243 306 311 226 316 310 237 394 367 234 227 245 352 395 224 391 302 305 313 312 401 353 385 368 233
378 377 239 379 374 240 242 372 376 375 241 228 238 236 307 235 380 373 388 382 381 229 371 304 244 230 308 243 309 237 234 226 387 390 245 370 389 383 306 386 227 233 302 246 250 316 305 303 224 384 232 366 311 394 369 249 364 391 365 231 262 310 395 317
379 240 378 228 377 376 388 380 239 238 229 374 375 236 372 381 390 242 389 387 230 382 226 235 241 386 227 371 373 237 383 224 307 394 384 391 234 370 232 244 233 309 395 308 304 243 364 245 223 225 231 250 365 366 385 392 306 369 246 222 249 393 401 217
380 376 387 388 381 390 386 379 228 377 384 382 383 389 394 375 378 240 364 395 229 391 385 372 371 238 370 365 239 374 224 401 227 366 402 226 373 393 236 230 242 309 367 399 223 392 396 363 235 369 241 232 149 307 225 398 308 362 237 138 368 404 400 233
381 383 382 376 387 380 384 364 375 370 365 377 386 371 366 388 379 390 372 401 367 378 228 385 395 402 394 373 309 369 363 389 240 374 362 368 239 399 229 391 353 238 308 352 242 404 358 307 310 396 393 361 360 224 398 354 400 311 227 236 226 241 403 230
382 381 370 383 375 371 376 366 377 365 380 387 372 309 364 369 373 367 384 379 378 374 368 386 388 401 353 308 352 362 390 363 310 228 240 307 239 402 311 358 385 242 354 395 394 389 313 351 238 360 229 316 399 404 312 361 241 357 355 306 359 391 304 236
383 381 365 382 364 370 366 387 384 367 376 401 380 371 375 363 386 362 402 369 368 377 385 390 309 388 372 358 353 395 379 373 404 399 360 394 361 352 378 354 228 374 310 389 359 400 240 403 357 308 398 396 457 391 239 311 393 229 351 307 355 405 412 313
384 387 364 386 385 402 395 401 383 381 380 365 399 390 394 382 363 376 396 388 398 404 400 393 389 367 366 370 391 362 403 375 379 361 397 138 377 228 371 149 360 407 368 406 392 229 405 224 378 369 358 372 240 137 140 223 412 135 457 309 227 373 353 139
385 395 399 384 402 396 386 398 394 387 400 393 401 364 397 390 138 403 404 383 380 407 391 381 365 363 149 389 388 406 137 140 135 392 361 376 382 139 405 362 367 224 366 150 228 408 128 141 136 223 360 370 379 134 412 133 229 377 375 411 148 457 132 227
386 390 387 395 394 384 385 380 388 389 381 391 364 393 402 376 383 396 399 228 401 379 398 382 392 224 365 149 138 229 377 223 400 397 227 375 363 240 370 378 150 404 366 238 226 139 367 371 403 140 225 407 137 372 362 239 232 151 361 230 406 148 374 236
387 384 386 380 381 390 383 364 376 388 395 385 394 382 365 401 402 389 379 377 228 375 370 399 391 366 371 363 393 367 396 378 229 240 398 372 224 362 404 400 238 392 138 149 374 227 369 373 239 309 368 223 403 397 361 226 360 358 236 230 242 353 407 150
388 390 228 380 389 379 229 386 387 376 394 391 240 224 238 227 381 226 377 378 395 384 223 230 239 382 392 236 383 375 232 385 225 393 364 374 372 149 235 237 233 371 242 231 370 365 150 396 222 241 402 401 151 399 138 373 154 234 366 398 307 309 139 250
389 390 391 388 224 394 229 228 227 223 386 392 380 395 226 225 387 379 393 238 232 149 240 150 376 384 230 385 151 381 222 154 378 236 231 377 138 396 139 233 239 148 153 383 364 237 382 152 375 399 402 235 398 221 374 401 140 157 397 372 147 155 365 218
390 386 388 394 389 380 391 387 395 228 384 224 229 385 381 376 379 393 392 227 223 149 364 383 240 226 396 238 377 382 402 378 138 225 399 150 232 401 375 398 230 365 239 151 236 139 397 370 372 371 400 222 154 374 148 231 140 366 363 153 233 237 235 367
391 389 392 394 224 223 390 149 393 395 150 388 386 227 229 225 151 228 138 139 380 387 385 148 226 396 232 154 153 384 222 379 152 238 140 376 147 398 381 230 240 399 141 397 231 163 144 402 364 143 157 137 383 236 377 162 378 233 146 155 128 165 401 400
392 150 149 391 223 151 224 393 148 394 389 139 153 225 227 390 154 138 152 395 147 163 386 144 388 229 396 222 141 232 140 143 226 162 146 385 228 165 157 158 380 387 397 164 145 155 384 128 137 398 231 238 104 399 142 230 379 221 156 161 240 402 376 381
393 138 149 395 396 394 391 392 139 385 140 150 397 386 398 390 137 389 141 399 148 223 384 128 224 387 402 400 143 151 388 144 153 407 135 147 380 136 129 227 364 401 225 142 229 152 228 146 403 145 163 381 127 406 154 404 132 383 165 376 133 226 379 232
394 395 390 386 391 389 393 385 388 392 387 149 384 380 396 224 138 223 228 150 229 399 398 227 381 402 139 364 376 397 379 225 383 140 151 401 148 226 400 137 382 238 240 232 153 141 365 377 154 378 407 230 128 222 375 147 403 404 152 144 363 143 135 236
395 394 385 386 393 396 390 384 387 391 399 138 398 402 389 149 388 380 392 397 364 400 401 381 139 140 224 383 223 150 137 376 228 407 365 403 229 404 379 363 382 141 227 135 148 406 128 151 225 377 136 226 153 361 143 367 240 375 370 366 238 405 362 144
396 398 397 138 393 385 399 395 137 400 140 407 402 394 135 149 386 384 139 128 403 141 406 136 391 390 401 392 387 404 364 129 133 150 132 389 134 143 408 148 405 380 388 363 223 144 127 383 381 365 142 224 130 361 131 151 153 147 411 683 145 412 376 123
397 398 137 396 135 407 138 140 400 399 136 393 128 385 406 133 132 395 403 129 141 402 134 139 149 408 394 130 404 131 384 386 127 143 401 405 683 142 391 392 686 150 364 123 390 409 411 387 144 148 122 684 361 363 410 389 126 687 145 688 412 147 107 685
398 396 399 397 400 407 385 402 135 138 137 403 406 395 393 140 404 384 401 136 133 386 134 394 408 405 128 364 149 132 139 141 387 129 363 361 390 411 391 683 365 412 392 131 409 130 383 389 410 150 381 380 143 127 686 362 413 388 360 148 684 142 457 367
399 400 402 398 385 396 403 401 397 404 407 384 395 406 364 386 135 138 363 393 405 137 361 387 394 408 365 140 134 383 390 412 133 411 381 362 136 149 360 380 391 367 128 457 132 139 389 413 388 409 410 141 683 382 392 366 129 376 370 358 456 131 414 359
400 399 403 398 407 406 402 404 397 396 135 385 405 408 401 134 137 361 133 411 395 384 138 363 364 412 393 140 136 409 410 386 132 683 413 365 394 387 360 457 362 128 414 383 131 129 420 149 390 686 684 367 456 141 130 416 139 381 391 380 681 359 415 458
401 364 402 363 365 404 384 399 361 362 383 385 367 403 400 360 387 381 366 386 398 405 395 412 457 358 382 368 406 396 370 359 380 407 394 390 376 397 411 369 371 408 456 458 357 353 393 354 413 375 388 135 138 459 134 377 389 391 416 137 352 410 379 309
402 399 401 385 404 364 384 400 403 398 363 395 365 396 361 386 387 406 383 407 405 397 362 381 367 394 360 412 393 390 138 135 380 408 366 457 382 411 137 134 370 358 376 368 388 359 391 140 413 389 133 149 456 410 458 371 136 375 409 369 392 357 139 416
403 406 400 404 405 399 407 408 402 361 411 398 412 401 134 363 135 397 413 385 410 396 409 457 360 133 364 414 384 683 362 456 416 137 365 395 420 138 132 415 136 367 458 386 359 453 383 393 387 140 419 684 358 131 686 418 394 681 455 381 366 128 368 678
404 361 403 405 401 363 402 412 400 399 406 360 457 362 364 411 398 365 408 407 385 413 384 456 367 359 458 396 410 358 383 134 416 397 135 414 395 368 387 366 409 453 386 459 357 381 455 133 415 683 137 370 382 138 420 394 393 454 354 380 353 418 419 460
405 411 412 403 404 406 413 361 408 410 400 457 414 416 456 407 134 409 360 363 402 399 401 415 453 398 420 458 683 135 362 419 418 133 359 364 397 417 455 385 365 454 396 452 358 367 384 459 681 684 678 422 451 137 132 432 357 433 686 679 368 383 395 449
406 403 408 407 400 134 405 411 135 404 398 399 133 409 410 397 683 402 412 413 361 396 414 420 137 401 132 385 136 684 363 686 131 416 457 681 419 138 360 456 415 140 364 384 395 678 130 418 685 129 128 362 393 453 682 365 688 458 386 679 422 417 359 387
407 135 406 400 398 397 134 403 133 408 399 137 396 132 136 405 683 402 404 409 411 385 138 140 131 410 686 128 129 130 684 401 393 395 412 361 420 413 414 384 681 141 363 685 688 364 139 386 394 687 122 127 149 678 419 123 457 682 416 360 387 365 143 415
408 134 406 409 411 410 405 683 403 407 420 133 414 400 413 135 412 404 684 681 419 398 686 399 678 416 132 397 361 415 131 418 402 685 682 136 137 679 456 422 457 396 401 453 688 680 417 363 130 385 360 691 421 423 689 129 140 687 138 432 458 677 452 128
409 420 410 683 408 134 681 411 414 678 419 684 406 133 413 679 686 405 682 418 422 407 685 680 415 403 135 416 131 691 412 421 132 400 688 677 423 417 689 404 690 432 453 136 675 398 361 130 397 456 425 687 676 399 137 424 457 452 433 694 695 402 667 431
410 414 409 411 420 408 413 419 415 418 134 683 405 416 406 678 681 422 412 679 403 417 684 453 133 407 423 680 456 421 432 682 404 400 686 361 135 452 457 433 685 677 691 131 424 454 425 132 431 451 399 458 398 360 455 688 402 676 397 434 363 690 689 675
411 413 405 410 414 408 412 409 406 416 403 415 420 134 404 419 361 456 418 683 453 457 400 407 417 678 360 133 422 681 135 458 452 399 363 684 402 679 432 454 455 398 401 423 433 451 359 686 362 397 421 680 682 132 685 131 459 434 385 396 677 364 431 449
412 405 457 361 413 456 411 404 416 360 403 458 453 414 363 410 415 406 408 359 455 362 454 401 400 459 417 402 409 418 452 358 399 451 134 407 419 449 357 420 367 365 364 450 433 398 460 368 683 432 463 435 135 434 385 422 384 354 133 366 383 423 397 447
413 416 411 414 412 415 410 405 456 453 418 417 408 457 419 409 361 420 452 403 406 404 454 458 455 432 433 360 451 134 422 683 423 400 678 359 363 434 679 407 459 681 435 450 449 362 421 401 431 402 399 133 684 135 437 680 424 436 358 447 398 357 677 682
414 410 413 415 418 411 419 416 420 409 417 408 422 405 412 453 432 423 456 452 678 679 433 683 134 406 421 681 403 457 454 451 361 680 431 404 424 684 455 434 458 677 407 425 682 133 400 437 360 435 691 428 686 135 685 430 450 436 676 359 363 449 667 399
415 417 418 416 414 413 453 452 432 419 433 410 411 423 422 456 451 454 412 420 434 431 409 405 455 679 437 421 424 435 408 457 678 458 436 430 450 428 361 425 406 683 680 681 134 677 403 447 449 404 360 438 442 446 459 359 684 426 682 667 429 691 427 676
416 413 453 415 414 456 417 412 452 418 411 454 410 451 433 455 457 405 432 419 458 434 361 435 408 420 409 423 422 450 360 449 404 403 359 431 459 406 436 437 447 679 678 134 421 424 363 683 362 463 430 400 446 442 464 681 357 460 358 428 407 438 401 680
417 415 452 433 432 418 416 453 451 434 414 423 431 413 454 419 437 422 435 456 436 410 424 455 430 411 412 450 428 421 420 438 442 679 447 458 457 446 409 405 425 449 678 408 429 440 441 677 439 680 427 361 426 448 459 360 681 464 359 443 445 683 667 465
418 415 419 417 414 432 423 422 416 433 410 413 452 420 679 431 421 453 424 411 678 409 434 425 451 437 428 677 680 456 454 430 412 408 681 405 435 683 436 426 455 667 134 676 457 682 691 438 427 684 406 458 429 442 450 666 403 361 447 440 675 446 404 668
419 422 418 420 414 679 410 678 415 423 421 409 432 417 680 413 681 411 416 677 424 425 683 408 433 431 682 452 691 684 134 453 676 405 667 428 412 426 406 675 456 685 437 434 451 686 430 666 133 454 403 690 672 668 427 407 457 689 455 435 361 688 404 429
420 409 678 410 419 681 683 679 414 422 684 680 408 418 134 682 411 421 415 413 677 691 685 423 686 133 406 416 405 417 425 432 676 675 690 424 131 688 407 689 412 403 135 667 132 453 433 431 452 672 400 456 694 674 404 687 426 428 668 130 666 695 361 673
421 679 422 425 677 423 680 424 667 678 676 419 426 418 666 691 420 428 668 431 432 675 681 672 682 665 414 415 427 410 417 409 433 430 597 669 670 684 690 673 671 683 429 664 674 437 685 416 413 452 411 596 598 408 689 662 709 134 686 434 694 453 654 712
422 421 679 419 423 418 678 425 424 677 420 680 432 414 415 431 410 417 667 676 681 428 409 426 691 433 682 666 416 413 675 452 411 683 668 430 427 437 684 672 408 453 665 434 429 134 685 690 451 597 405 686 412 673 674 669 456 596 670 454 671 438 689 664
423 422 424 432 431 421 418 419 425 428 679 417 433 415 677 426 430 414 437 667 678 680 420 452 427 666 429 676 410 416 434 413 409 665 453 668 681 451 438 691 440 597 596 411 436 675 682 435 672 442 454 439 598 683 664 408 456 684 594 669 441 595 412 405
424 428 423 425 431 426 421 422 427 432 430 667 666 429 679 677 418 419 665 437 433 597 596 417 676 668 680 415 678 440 598 452 438 664 414 420 434 595 594 669 691 662 672 439 675 410 416 599 436 442 681 670 451 585 593 409 453 441 413 682 660 435 671 600
425 421 667 426 424 677 666 676 422 423 679 668 428 680 665 427 431 678 672 419 597 675 691 432 669 418 664 670 429 420 430 671 596 598 681 682 662 673 417 433 415 437 414 654 674 410 690 409 595 653 709 599 712 440 663 660 452 684 683 713 685 594 416 438
426 666 665 425 667 427 424 597 428 668 664 421 598 677 596 676 423 429 669 662 431 422 679 430 670 595 599 672 680 660 654 432 663 675 671 419 440 678 418 437 600 691 594 653 661 603 593 655 433 673 417 712 438 656 420 713 659 439 415 585 709 592 682 674
427 429 596 428 597 426 598 424 595 665 430 431 666 594 440 425 599 593 662 664 667 423 600 660 437 421 585 432 668 439 603 438 592 422 669 591 677 433 661 663 586 676 601 679 441 418 654 584 602 442 417 587 670 434 606 419 680 672 659 452 590 655 436 589
428 424 427 431 429 430 426 423 425 596 432 437 440 597 421 666 665 598 422 667 433 438 594 595 418 439 417 677 679 585 664 668 419 434 593 599 662 452 676 442 415 441 436 600 680 660 669 584 678 451 414 592 586 603 435 591 420 672 416 443 446 587 670 663
429 427 596 428 430 440 594 595 431 598 585 439 593 424 437 597 438 426 599 665 600 441 423 586 432 584 591 592 425 666 587 442 433 662 660 664 667 603 434 421 583 436 443 589 422 601 590 417 418 452 582 668 606 446 661 580 677 607 602 679 669 588 445 435
430 437 431 440 429 428 438 439 432 427 424 433 442 441 594 434 585 596 423 436 584 417 452 426 443 595 446 418 425 435 598 451 422 593 597 421 415 587 445 583 586 582 665 666 419 667 444 599 591 453 454 447 679 600 416 592 677 414 448 580 512 589 450 662
431 432 430 428 424 423 437 433 429 417 427 418 438 422 434 440 452 425 421 426 415 419 439 436 442 596 451 679 441 667 594 435 666 414 597 677 416 585 665 453 598 446 595 454 584 678 680 420 443 413 676 410 668 593 447 445 664 450 599 456 411 662 455 409
432 433 417 431 423 418 452 415 437 424 434 422 430 428 419 416 451 414 453 421 436 438 435 425 679 413 454 429 442 410 427 440 420 426 677 439 678 456 411 446 441 455 667 680 447 450 409 596 666 412 676 594 443 585 458 665 681 597 405 584 408 449 445 457
433 452 432 417 434 437 451 431 415 418 436 435 453 430 423 416 454 438 442 424 428 414 422 419 446 447 413 450 455 456 440 441 439 429 421 410 425 427 679 448 443 449 411 445 458 412 420 426 584 457 585 465 678 464 596 409 677 594 511 405 444 667 512 680
434 436 435 451 452 433 437 442 446 417 454 432 438 447 453 450 431 430 441 415 448 455 416 445 418 439 443 449 440 423 456 465 511 428 464 584 424 512 414 413 458 444 429 419 582 422 585 510 463 459 457 412 466 427 509 513 594 514 411 410 421 583 425 507
435 451 436 434 447 450 446 454 452 442 448 433 455 453 465 449 437 417 464 438 445 511 432 441 443 416 456 415 510 512 458 430 466 431 463 439 444 459 418 509 584 440 507 413 513 582 457 462 468 423 414 514 460 412 359 467 428 585 424 504 429 419 515 508
436 434 435 446 442 451 447 438 437 452 433 448 445 441 443 450 454 439 511 430 417 432 512 465 444 431 453 584 440 455 464 582 449 415 510 513 416 514 509 585 418 456 428 429 583 423 466 515 507 458 424 463 594 468 413 459 414 504 587 427 581 503 580 462
437 430 438 431 433 434 442 432 436 440 439 452 441 428 417 429 435 451 446 423 424 443 584 585 418 427 415 445 594 447 454 453 596 422 582 416 448 450 444 426 425 419 583 421 512 414 587 511 455 595 593 598 413 597 586 679 456 465 449 666 514 515 667 665
438 439 441 442 437 440 430 436 584 443 434 446 585 445 431 433 429 582 435 594 444 583 432 428 452 451 587 512 448 447 417 427 596 424 511 515 580 586 423 514 581 454 450 593 595 513 418 415 453 465 589 591 509 426 598 579 588 416 422 455 425 597 518 592
439 441 440 438 584 585 442 443 430 594 437 583 582 587 429 445 436 444 446 586 580 431 434 596 428 581 593 515 427 512 433 589 435 595 591 514 432 588 579 448 452 424 511 451 590 592 513 518 447 598 417 423 578 574 600 517 597 426 509 599 516 450 454 465
440 439 585 594 430 438 429 441 584 437 596 442 428 427 587 431 586 593 443 583 595 582 436 591 434 424 598 433 580 446 432 589 445 592 444 597 600 426 423 590 581 588 599 435 452 515 579 417 512 451 665 425 574 514 448 666 603 601 418 607 447 606 660 518
441 439 443 438 584 442 582 445 440 444 585 446 583 436 437 430 512 587 434 515 594 514 580 435 581 448 429 511 513 433 431 586 447 451 452 428 432 579 509 589 518 596 588 517 593 516 427 465 450 417 503 591 578 595 454 424 510 504 590 423 507 574 464 520
442 436 438 446 441 443 445 437 434 439 435 584 444 440 430 448 582 512 447 433 451 511 452 585 431 583 514 450 432 513 515 465 454 417 429 594 509 587 428 581 580 453 464 510 455 449 423 415 507 424 427 418 586 503 596 516 416 504 466 517 518 579 456 593
443 441 445 444 582 584 442 512 446 439 438 583 514 515 436 511 513 585 448 581 440 580 437 587 434 435 509 447 516 430 503 517 518 594 465 579 504 451 433 586 507 510 429 450 578 452 588 431 589 520 464 432 454 525 519 428 508 417 505 502 593 468 596 591
444 582 514 445 443 512 515 513 441 584 511 583 446 581 442 516 509 503 517 448 439 580 438 436 518 504 587 585 507 520 447 440 579 465 435 525 578 510 434 437 502 526 505 519 508 588 430 521 524 594 586 450 451 468 589 464 577 501 433 491 466 452 506 527
445 512 443 444 446 511 442 582 514 441 448 513 436 515 509 584 438 447 439 435 583 465 503 434 516 504 507 510 581 437 450 440 585 517 451 580 464 587 430 508 518 468 433 452 505 454 466 502 449 520 579 594 525 526 431 578 432 467 469 455 429 506 417 586
446 436 442 445 448 435 447 443 511 434 441 512 438 444 451 465 450 437 582 439 513 584 509 514 452 510 433 454 464 507 515 430 440 449 583 455 417 466 504 432 585 453 431 503 468 516 508 581 463 580 587 467 415 429 416 462 505 456 594 458 517 428 418 469
447 450 435 448 465 464 446 451 436 449 454 434 511 510 455 466 442 452 445 463 453 512 507 433 509 468 462 443 458 459 437 438 467 456 441 417 444 513 460 416 508 514 504 432 461 415 469 439 582 359 457 430 470 584 357 431 505 503 413 356 418 515 472 440
448 511 465 447 446 510 445 512 435 464 509 450 436 507 513 442 466 443 444 468 451 434 449 504 514 508 454 441 467 438 582 462 503 455 463 469 452 505 515 437 584 433 439 516 506 453 470 459 458 489 502 417 460 583 461 491 456 430 440 488 432 517 472 581
449 450 455 463 464 459 454 458 447 460 466 465 451 462 456 435 359 453 461 357 457 448 510 356 452 467 434 360 436 416 358 446 468 344 511 412 472 354 417 433 470 361 507 362 413 415 345 442 368 469 355 445 509 508 363 512 473 432 437 353 471 367 405 414
450 447 449 454 435 455 464 451 465 448 463 436 453 434 458 466 452 459 446 510 456 462 511 460 433 442 416 417 359 457 468 467 445 461 507 357 415 437 512 509 356 438 432 360 412 413 443 441 470 508 469 513 358 472 444 418 344 361 414 504 431 430 354 514
451 435 454 452 434 453 450 436 433 447 455 417 416 449 446 456 415 432 437 442 458 448 464 465 418 438 413 431 459 457 414 463 430 445 412 511 441 423 443 466 510 359 439 419 411 460 512 360 440 422 410 424 462 428 444 361 405 357 584 509 507 468 582 429
452 433 451 417 434 453 454 432 435 415 416 436 437 418 455 450 456 431 447 413 414 442 423 446 430 438 449 458 419 412 422 457 448 424 411 410 428 441 464 465 439 459 445 440 443 405 421 420 463 679 429 359 511 361 360 409 425 584 427 512 466 408 510 678
453 416 454 456 452 451 455 417 415 413 458 433 412 457 434 450 435 414 418 449 432 411 447 459 436 405 410 359 361 360 419 437 463 464 423 431 446 404 422 460 442 408 448 420 465 357 409 403 362 438 363 430 358 406 424 466 679 421 462 428 356 678 510 445
454 455 451 453 450 452 435 449 456 458 447 434 416 417 433 436 459 415 457 464 463 413 412 446 465 359 448 432 418 460 414 437 442 360 466 361 357 411 510 462 438 511 405 431 445 410 461 358 419 423 430 356 362 441 443 467 404 468 512 422 363 507 439 354
455 454 458 449 456 450 453 459 451 457 463 359 447 435 416 452 464 460 412 360 434 357 417 413 465 415 436 361 433 466 358 462 448 461 356 446 362 414 405 411 510 432 418 363 354 442 404 437 368 467 511 344 410 468 367 445 419 472 403 438 431 355 345 507
456 457 458 453 455 412 416 454 413 360 361 359 459 451 449 415 452 405 411 417 450 414 404 362 435 357 463 363 460 418 358 433 410 434 447 403 432 464 408 419 406 436 401 367 368 356 409 354 465 420 461 402 400 365 466 462 437 423 446 448 422 364 134 431
457 360 456 458 412 361 359 455 459 362 363 453 405 404 413 416 358 357 454 411 449 460 403 401 367 368 463 415 414 450 451 365 354 452 402 356 417 406 410 364 408 400 366 353 435 399 418 464 461 447 433 383 434 409 419 462 407 384 355 432 134 466 369 370
458 455 456 457 459 359 449 360 454 453 357 460 412 463 361 450 358 416 362 451 413 464 356 363 452 447 405 435 354 368 461 404 415 367 417 411 462 466 434 414 465 433 401 353 403 365 344 436 355 418 448 410 366 345 432 510 402 364 446 467 406 408 472 369
459 460 359 458 463 357 449 455 356 358 457 360 461 456 450 354 454 464 462 362 368 453 466 344 361 412 355 447 451 367 353 345 363 465 416 472 435 467 452 413 510 366 404 365 448 405 470 343 352 468 434 350 369 401 473 351 415 417 436 411 433 446 471 364
460 459 357 356 463 461 359 449 354 358 462 344 458 355 345 455 464 466 368 472 360 353 457 450 362 456 467 343 454 367 350 473 465 470 351 447 352 361 510 453 363 468 471 366 369 346 412 451 435 474 365 347 448 342 469 416 488 310 370 452 404 349 475 401
461 344 356 460 462 463 472 345 357 355 466 459 343 473 467 470 354 464 449 471 350 359 358 346 474 353 468 458 342 351 465 368 488 510 455 450 469 475 347 352 477 360 447 362 457 454 330 367 487 507 369 456 349 476 489 508 448 348 341 366 310 340 435 451
462 466 467 461 463 472 464 470 344 468 460 510 465 449 356 471 473 469 459 488 345 450 343 357 507 474 475 447 508 448 455 355 489 458 359 487 354 506 511 350 454 346 342 477 509 476 358 435 505 504 451 490 486 353 446 456 368 347 457 351 360 453 436 512
463 460 449 459 462 461 464 466 356 357 450 455 458 359 344 465 467 472 447 454 510 358 354 345 470 468 456 457 355 360 448 451 435 473 453 343 368 471 469 362 353 507 511 488 350 452 446 361 508 474 436 412 434 367 416 346 475 351 509 363 352 489 342 413
464 466 465 449 450 463 510 447 462 448 467 468 455 459 435 460 461 511 454 507 451 470 446 469 458 472 508 509 436 356 344 357 434 359 453 445 512 456 452 488 504 471 442 513 506 489 505 473 457 345 358 443 475 433 354 444 360 416 343 355 514 417 474 487
465 510 464 448 447 466 511 450 468 507 467 449 509 462 446 435 463 508 512 469 445 436 504 454 451 513 455 470 442 434 505 461 459 506 460 444 443 514 472 489 458 488 503 452 453 441 471 344 356 438 456 491 490 582 433 357 359 516 437 515 502 473 487 475
466 462 464 467 510 465 468 463 470 449 461 469 507 472 450 447 448 508 460 511 488 344 471 459 509 356 455 489 473 506 435 454 475 505 504 357 446 458 345 487 474 451 343 512 359 513 436 490 445 486 355 476 491 354 434 456 453 358 477 503 442 342 452 457
467 470 468 466 462 469 510 488 472 471 464 508 465 507 489 461 475 463 473 506 487 344 474 505 449 448 490 509 460 511 486 476 504 447 450 343 356 345 477 491 459 485 492 342 482 513 357 493 455 481 346 512 355 435 446 454 350 503 478 458 502 500 445 340
468 510 469 467 507 508 466 470 465 506 489 462 464 488 505 509 504 511 448 471 490 472 487 475 491 486 463 447 513 461 450 512 449 473 492 503 474 344 476 502 446 500 445 493 460 485 514 435 459 482 499 356 444 343 477 455 516 436 501 345 454 495 481 451
469 468 489 508 506 467 488 470 507 487 510 490 505 486 466 471 475 462 491 504 472 492 465 509 476 464 493 485 474 473 511 482 500 448 502 461 499 513 463 344 503 495 481 477 447 512 501 343 449 484 450 478 483 460 342 498 480 514 345 445 526 516 356 340
470 467 471 488 472 469 475 462 468 473 466 474 487 489 461 344 476 510 508 506 477 486 343 507 464 490 463 465 342 345 482 485 505 481 356 460 346 478 340 493 491 449 492 504 509 350 448 355 511 459 450 341 480 447 357 347 483 484 330 495 479 354 339 500
471 475 474 470 473 488 472 476 487 477 467 469 343 342 344 462 489 481 482 478 468 461 340 486 346 466 485 345 506 490 341 508 480 510 350 356 463 493 339 330 347 507 464 335 479 483 355 460 338 505 465 492 484 491 334 336 331 495 337 348 449 351 357 504
472 473 344 471 470 461 462 474 343 467 345 488 475 466 342 356 346 477 463 469 460 468 350 355 476 487 464 489 347 510 340 357 341 354 459 330 478 465 449 481 508 351 506 486 482 507 485 490 348 335 353 450 359 358 339 349 352 331 505 447 480 368 455 458
473 474 472 471 343 342 344 477 470 475 346 345 488 461 476 462 350 467 340 341 347 487 478 330 356 355 481 469 466 335 482 468 460 489 463 339 351 348 331 486 334 485 354 464 349 480 357 338 479 510 506 508 337 336 490 459 353 329 352 465 449 507 483 333
474 477 473 471 475 342 476 472 343 340 488 470 478 346 481 487 341 344 482 345 339 335 467 330 350 461 347 462 469 480 485 489 479 338 486 334 468 336 331 355 337 466 483 356 348 490 506 493 749 484 508 351 463 333 460 67 750 349 510 329 464 507 354 332
475 476 471 488 487 474 470 477 473 481 482 489 472 485 486 478 469 467 340 342 480 490 506 493 343 468 483 462 479 344 508 484 346 341 339 466 338 461 492 335 345 505 495 510 507 491 750 330 753 336 749 350 754 347 464 337 463 334 499 356 465 67 504 355
476 475 481 482 487 478 488 485 477 474 471 480 486 340 483 479 489 473 470 493 484 342 469 338 490 472 339 750 506 467 341 753 749 343 335 495 492 336 754 468 346 508 67 344 462 337 491 330 505 751 756 334 466 494 345 461 499 507 748 752 347 510 350 744
477 474 340 478 342 476 475 473 481 471 341 339 335 343 346 482 338 488 472 479 487 480 330 470 336 334 337 347 485 344 331 345 350 483 749 67 333 486 489 467 750 348 469 461 462 484 65 332 493 355 64 329 490 327 753 468 349 356 351 506 466 69 748 508
478 481 340 477 479 338 480 339 476 482 474 336 335 475 749 341 483 342 67 750 337 485 487 471 473 334 488 484 753 346 330 65 333 486 343 748 69 470 472 331 493 64 489 751 347 68 744 332 490 469 344 754 70 66 350 495 345 752 467 756 348 63 327 506
479 480 338 749 750 478 481 67 483 336 339 482 340 748 753 476 69 477 337 484 751 485 335 744 65 475 68 474 341 487 70 752 747 334 342 333 742 756 486 471 493 746 754 64 488 66 71 72 473 743 745 495 330 63 79 331 489 346 332 737 736 741 490 470
480 483 479 481 482 750 478 753 484 749 476 485 338 340 751 67 477 487 339 748 475 336 744 493 486 754 752 756 69 474 488 495 335 471 337 742 489 743 341 490 65 342 494 747 746 473 68 70 755 492 745 470 762 334 741 469 506 333 71 472 758 496 64 499
481 478 482 476 480 479 483 477 340 485 475 338 487 474 750 484 339 749 471 488 486 753 336 493 67 342 335 473 341 489 337 470 751 490 754 748 495 472 469 69 744 343 756 334 346 752 506 65 492 330 467 333 494 742 331 344 68 468 508 64 347 491 743 70
482 485 481 476 480 483 487 484 478 475 486 479 493 488 753 477 750 489 474 340 471 338 490 754 495 749 339 492 756 751 470 469 506 473 494 752 336 67 342 748 744 472 335 491 499 341 467 508 762 496 337 468 69 505 755 742 743 343 500 346 334 498 65 462
483 480 484 753 482 485 750 481 479 751 754 756 476 493 752 478 749 486 487 495 744 338 748 494 475 742 743 340 67 477 755 762 490 488 69 489 339 492 336 474 496 746 471 758 741 745 747 499 506 761 335 757 337 469 491 470 70 763 473 65 342 68 341 759
484 483 754 485 753 493 482 756 495 480 494 752 486 751 750 481 762 476 487 479 755 490 492 496 743 744 478 499 742 489 749 475 758 748 488 761 338 763 506 491 497 498 741 477 500 340 745 757 471 759 474 67 469 746 69 530 339 505 336 470 747 764 508 529
485 482 486 493 484 487 483 476 481 480 495 490 489 475 754 488 492 753 478 506 479 494 756 471 750 469 499 477 491 474 470 496 752 751 340 762 508 338 505 500 749 473 498 755 467 468 744 339 497 472 743 748 763 342 507 67 742 336 502 761 504 758 501 335
486 490 493 487 489 485 492 506 488 482 495 476 475 469 491 484 499 508 505 483 481 754 500 471 470 494 480 468 496 467 474 498 507 478 753 504 477 502 756 479 501 497 762 473 472 510 750 340 509 529 466 752 462 763 751 755 503 338 530 526 342 749 527 465
487 488 475 486 476 489 485 482 471 490 469 493 481 470 506 474 477 492 484 480 483 467 478 508 473 468 495 472 491 505 340 479 754 507 499 462 342 753 466 510 500 494 343 338 750 504 344 339 496 756 461 341 749 346 498 502 509 335 465 464 751 336 345 762
488 475 487 470 471 489 469 476 467 486 474 472 468 506 473 490 485 482 508 477 481 462 493 466 478 507 505 510 492 491 344 342 343 480 340 461 483 484 495 464 465 504 479 346 345 499 463 509 500 341 754 339 338 356 511 460 502 753 335 350 448 494 750 330
489 506 490 469 486 487 488 508 505 492 491 468 493 475 470 485 467 507 476 471 482 504 495 500 499 510 474 466 481 509 472 484 502 462 473 483 477 754 465 498 501 480 494 496 478 503 511 464 513 448 461 497 526 344 340 529 753 479 342 343 512 463 527 756
490 492 506 486 489 491 493 505 487 508 499 469 495 500 485 488 504 502 468 507 482 475 498 476 484 496 494 501 470 754 467 471 509 483 497 510 481 529 503 526 480 527 474 762 466 513 756 753 472 511 763 530 478 462 477 465 473 516 528 531 524 479 512 755
491 492 500 505 506 490 499 502 508 501 504 489 498 486 493 495 507 469 503 526 529 509 527 496 497 468 487 485 494 488 513 516 524 528 510 754 467 511 531 484 470 530 475 514 482 512 476 525 763 532 762 538 465 471 466 523 483 448 517 533 515 481 756 444
492 490 491 499 500 493 495 506 486 505 489 498 496 502 501 494 485 508 497 487 754 529 469 504 484 488 507 527 526 482 762 468 530 503 763 476 475 509 483 531 528 756 470 467 524 510 481 513 471 516 753 480 532 755 761 764 538 533 511 765 752 466 525 474
493 495 486 485 490 492 484 754 494 499 487 489 482 491 506 483 496 500 476 498 488 756 762 753 480 481 475 505 469 497 508 763 755 752 501 502 529 471 470 478 750 479 751 530 468 761 504 507 474 467 477 758 743 527 531 764 526 340 749 744 509 473 338 510
494 496 754 762 495 763 497 756 493 499 755 761 484 498 530 492 764 752 485 758 486 753 500 529 490 483 491 759 774 531 765 743 482 751 760 501 506 489 487 480 533 757 502 742 528 527 505 769 723 532 750 741 722 476 481 744 772 766 488 526 508 725 475 773
495 493 494 754 496 492 499 484 486 485 490 762 498 497 756 500 491 763 483 489 482 506 755 487 753 530 529 761 752 505 501 480 476 502 764 481 488 758 531 508 751 469 475 527 743 750 765 759 528 504 774 479 526 533 478 532 742 507 471 744 760 468 470 757
496 497 494 498 763 495 499 762 530 754 529 492 493 500 764 761 531 755 756 765 491 501 490 484 486 533 774 528 527 532 485 502 758 769 506 752 759 760 505 753 483 489 766 526 538 482 535 487 534 524 743 768 772 751 508 773 504 722 723 480 767 757 469 523
497 530 498 496 529 763 531 499 494 764 765 500 533 762 495 528 501 532 492 527 761 754 491 774 769 766 493 502 538 535 755 526 534 490 756 524 768 486 484 760 505 767 506 523 758 759 536 773 485 537 772 489 752 504 503 770 543 525 753 812 508 483 722 813
498 499 497 529 496 500 501 530 531 492 527 491 528 495 494 763 502 532 526 533 493 490 762 765 764 538 754 524 505 506 486 535 761 766 504 523 503 489 534 769 484 485 508 774 755 756 525 516 537 536 768 487 767 469 507 509 522 513 760 483 521 482 758 543
499 498 500 492 496 491 495 497 529 501 490 493 494 502 506 505 486 530 527 754 763 531 489 526 528 762 485 508 504 484 532 487 524 503 764 533 469 765 756 761 538 507 755 482 488 509 483 516 468 523 535 525 476 753 513 774 475 766 752 769 534 480 758 481
500 491 499 501 502 492 498 529 505 527 490 526 506 497 496 504 495 528 493 503 508 524 486 489 531 494 530 516 532 507 509 538 469 763 513 754 525 485 523 487 533 762 468 514 484 488 765 535 517 764 510 511 512 521 482 537 522 761 520 467 756 534 515 475
501 502 527 500 526 529 498 528 524 499 491 503 492 505 531 497 538 532 504 516 525 523 496 490 506 530 533 508 495 513 509 535 517 521 522 537 493 494 514 507 520 489 763 486 765 536 534 515 539 512 469 766 764 754 511 762 468 444 557 485 510 487 543 518
502 501 526 500 503 491 504 505 527 516 524 499 492 498 529 506 509 513 508 528 525 490 507 514 517 538 523 497 489 512 531 532 496 511 515 469 520 495 486 521 493 468 444 510 522 530 494 445 533 537 535 448 487 582 518 465 488 763 485 581 467 539 443 754
503 516 513 504 502 514 509 526 512 505 515 517 501 525 444 524 507 511 491 500 508 527 445 520 506 582 521 443 448 510 581 523 492 518 528 499 468 490 529 498 469 465 446 538 489 522 583 519 584 580 441 442 578 532 557 447 486 531 467 497 466 579 537 464
504 509 505 503 507 508 513 502 491 506 511 512 516 514 510 500 468 526 501 469 490 489 492 448 465 444 445 515 499 527 467 524 517 525 466 486 498 446 443 582 464 488 529 470 447 493 487 528 520 495 462 581 442 523 521 497 436 441 450 496 485 538 475 518
505 508 506 491 504 507 502 490 500 509 492 489 469 503 468 501 499 513 510 486 526 511 516 493 467 488 498 487 512 514 527 495 465 470 448 529 466 485 524 496 475 497 445 444 464 471 528 525 515 462 494 476 517 482 754 447 446 484 531 472 538 443 523 530
506 489 490 508 505 491 469 492 486 507 468 504 487 488 500 493 499 502 509 467 510 470 485 495 475 501 503 471 498 476 466 513 511 482 465 526 496 462 484 494 529 472 754 448 516 512 527 464 497 474 481 514 483 473 524 480 477 528 445 478 447 444 762 461
507 508 509 510 468 504 505 511 469 506 465 513 448 467 466 489 512 503 491 464 490 502 470 514 445 488 447 462 492 500 446 516 444 486 487 450 501 526 471 443 499 475 463 472 515 449 435 493 436 442 582 461 485 527 517 476 498 473 495 524 441 451 474 525
508 507 505 506 469 468 504 489 510 509 491 490 467 492 488 511 486 470 502 465 466 513 503 500 487 448 512 464 499 493 462 475 501 471 514 516 485 526 472 495 476 445 447 498 444 482 446 527 474 473 463 450 461 529 515 449 496 524 443 484 481 494 344 497
509 504 513 511 507 512 503 508 505 510 514 448 445 468 465 516 444 502 506 469 491 446 515 443 447 466 526 464 467 582 489 500 490 501 517 442 492 436 435 450 441 525 470 524 462 527 488 499 581 486 584 583 520 449 487 438 434 498 518 463 451 439 493 529
510 465 468 507 466 464 448 467 511 508 509 469 462 447 504 505 470 450 506 512 513 489 463 449 446 445 488 435 472 503 461 491 490 514 471 436 444 487 455 454 460 451 502 475 442 443 486 459 344 492 516 473 434 500 356 515 474 458 582 441 476 452 501 493
511 448 509 512 513 445 465 507 510 446 504 444 514 447 443 468 503 508 464 436 442 435 505 466 450 582 515 516 441 469 467 506 434 502 451 438 449 584 462 491 454 517 489 439 463 583 526 470 581 437 455 490 452 500 501 488 433 525 492 580 518 440 524 585
512 513 445 444 514 511 509 443 448 515 446 582 503 504 516 507 442 441 465 510 584 436 447 517 583 581 508 505 438 435 439 502 468 464 580 526 518 434 450 525 520 466 506 491 437 585 469 451 587 440 501 524 467 500 579 578 449 521 454 527 489 430 452 519
513 512 514 509 503 504 511 444 516 445 515 507 448 443 582 502 505 517 508 446 510 526 465 525 581 468 491 441 442 501 506 584 583 524 520 447 500 518 436 469 527 580 464 435 466 438 521 439 490 489 492 467 450 523 519 499 578 434 579 587 528 585 498 529
514 513 444 515 512 516 503 582 445 509 517 443 511 504 581 583 518 584 525 446 441 448 520 502 526 507 580 442 505 524 508 510 439 521 578 465 501 436 519 438 579 587 527 447 491 585 500 468 506 523 435 522 440 588 557 577 434 469 464 559 437 528 450 466
515 514 582 444 581 517 516 518 583 512 513 443 580 445 503 520 584 525 578 441 579 509 519 511 587 521 504 526 439 446 442 524 585 588 502 577 448 438 559 557 507 522 589 523 560 436 440 586 505 501 527 575 510 508 594 465 574 447 435 500 437 491 558 538
516 503 517 514 513 515 525 526 502 524 520 504 512 444 509 521 501 518 527 581 582 523 505 445 511 519 500 443 522 507 491 528 583 580 538 578 508 557 529 584 448 579 506 559 441 446 498 499 510 539 492 537 532 577 442 468 490 465 587 556 560 531 469 439
517 520 516 525 515 518 581 521 514 519 503 524 578 526 582 444 513 580 522 557 523 583 579 559 512 502 577 527 560 443 504 445 501 509 584 539 538 556 558 587 588 528 511 537 441 561 505 500 575 589 507 439 532 576 585 529 491 446 554 540 442 566 574 448
518 578 581 519 517 520 579 580 515 577 583 559 560 521 588 525 582 557 516 587 514 444 575 584 558 522 576 589 561 574 443 524 566 503 556 523 513 512 586 526 585 441 445 573 562 539 439 590 563 554 567 572 527 502 538 509 591 537 594 504 555 440 608 442
519 559 578 518 520 557 560 521 577 558 517 579 581 561 525 522 556 580 566 515 576 588 539 554 523 575 563 562 516 583 524 555 582 574 587 514 567 553 537 589 526 540 573 552 538 444 572 503 565 564 568 584 527 541 513 586 551 258 269 528 590 443 542 536
520 521 517 525 519 518 557 522 559 578 516 524 581 523 515 526 560 556 539 577 579 558 514 580 503 538 527 582 537 583 561 444 513 528 502 501 554 588 540 555 512 576 563 566 587 575 536 584 504 532 443 562 509 445 535 542 541 529 553 589 574 500 552 441
521 520 522 525 557 523 519 517 524 539 559 556 518 537 538 558 526 516 578 527 560 540 528 581 555 515 554 577 536 503 561 532 501 542 579 535 514 502 541 580 563 529 513 552 543 553 582 551 531 583 444 562 566 534 576 545 588 500 550 504 533 512 575 498
522 523 521 539 557 537 556 525 538 524 520 540 519 536 559 555 558 528 542 517 527 526 535 541 532 554 518 543 516 560 578 501 551 545 534 561 552 531 550 529 563 533 502 553 577 503 581 515 544 579 548 514 766 562 767 549 500 498 269 580 566 564 513 813
523 522 538 524 537 521 525 539 528 527 526 532 536 520 535 557 556 540 501 517 542 529 531 516 519 543 534 555 533 502 559 541 558 503 518 498 500 545 554 766 515 497 767 544 578 530 560 551 514 550 581 499 765 552 513 504 491 561 813 577 768 548 505 553
524 526 525 527 523 538 528 521 501 522 516 502 520 517 532 537 529 503 539 500 535 531 557 536 498 519 514 504 515 556 533 518 513 491 499 540 497 505 534 559 542 530 581 543 509 492 578 558 555 512 444 766 496 541 765 506 582 508 560 507 490 767 554 545
525 521 524 520 517 523 526 516 522 527 557 538 519 503 518 528 539 515 501 502 537 514 559 581 556 578 513 532 529 558 504 536 500 535 444 540 560 582 580 512 579 531 577 509 555 498 583 542 505 491 554 561 533 499 445 541 534 543 443 511 497 507 584 588
526 524 527 501 502 525 516 503 528 500 523 538 529 517 504 521 491 498 520 532 522 505 513 499 514 531 509 537 515 492 497 535 539 506 512 508 533 557 507 518 490 536 519 444 530 496 581 511 534 556 582 495 489 445 540 559 578 493 765 542 469 486 766 543
527 528 501 526 524 529 538 502 532 523 531 500 498 525 535 499 497 537 516 522 503 533 521 491 530 536 520 517 492 539 496 505 504 534 765 766 513 557 514 543 763 490 506 542 540 495 509 515 494 556 508 767 764 519 493 518 769 507 768 512 489 486 559 762
528 532 527 538 529 531 524 523 501 535 526 533 537 498 536 497 534 530 525 500 522 502 766 539 499 765 521 543 496 542 767 516 491 540 503 520 763 492 769 768 764 517 557 556 505 504 544 813 494 495 545 541 555 812 490 519 774 762 513 506 514 493 761 515
529 498 531 528 497 527 501 532 530 500 499 496 533 538 526 502 524 535 765 763 492 491 523 494 534 764 766 495 537 536 525 769 762 505 490 503 493 522 767 516 768 754 506 761 504 774 543 521 539 486 542 508 489 520 517 755 540 813 513 509 812 756 484 485
530 497 763 765 531 764 496 533 529 498 769 532 766 774 494 762 761 528 499 534 768 535 527 495 501 500 538 767 773 754 755 760 492 772 770 536 759 491 526 493 756 502 812 524 758 537 543 523 813 490 722 484 810 776 788 486 752 723 544 542 505 775 506 485
531 532 533 529 530 528 497 765 535 498 538 766 534 527 501 763 764 496 769 536 767 499 537 768 524 500 523 526 543 774 502 494 813 762 542 812 492 761 522 495 491 539 525 773 544 770 540 521 754 545 772 493 760 503 810 490 516 814 505 755 811 546 541 520
532 528 531 535 538 533 534 529 527 536 537 766 523 530 765 524 497 543 498 501 767 526 542 522 768 539 769 500 540 525 764 813 496 499 763 502 544 521 812 545 541 556 774 491 520 557 770 516 494 492 814 555 546 503 773 517 762 495 761 811 810 550 548 505
533 531 766 532 534 765 535 530 767 769 768 528 529 538 536 497 764 543 537 498 813 527 763 812 774 496 523 770 544 542 501 773 524 499 810 814 539 526 500 540 811 761 545 522 546 494 772 762 502 760 525 541 495 521 788 492 815 816 771 491 547 809 808 755
534 535 766 767 533 543 536 532 768 813 531 544 765 537 812 542 538 769 528 545 814 530 546 540 529 770 523 811 539 810 527 764 541 497 522 815 547 773 524 548 816 498 774 763 550 555 501 526 556 808 496 521 809 525 772 771 551 818 805 788 499 500 549 557
535 534 536 532 533 537 538 543 528 766 531 767 542 523 539 544 540 813 768 765 529 527 522 545 524 530 769 812 541 497 546 501 814 498 526 521 525 555 556 764 550 548 770 547 811 763 557 810 500 496 815 502 551 499 774 520 773 816 549 554 516 517 558 552
536 537 535 543 542 534 540 538 532 539 545 544 523 767 533 541 528 766 522 813 531 555 546 556 550 768 524 548 527 812 814 547 521 765 529 551 557 525 769 530 526 549 815 811 554 501 552 497 520 558 498 273 770 810 816 818 559 764 519 274 502 553 517 270
537 536 539 538 523 535 542 540 522 543 532 528 534 541 556 524 521 555 545 527 533 557 531 525 544 767 766 550 526 529 813 520 551 548 554 501 558 546 559 768 519 765 547 552 517 812 530 814 549 498 497 516 502 769 553 500 518 815 273 560 561 563 503 811
538 528 523 532 537 535 527 524 536 522 531 539 529 533 526 534 525 521 501 543 542 540 766 498 556 502 520 557 530 767 497 765 500 541 516 545 555 517 544 768 499 813 503 769 519 496 559 491 558 550 812 763 764 554 551 546 518 492 548 504 814 505 515 514
539 522 540 537 556 523 555 557 542 536 521 541 538 535 543 554 558 525 524 545 551 559 520 550 532 528 552 519 534 527 544 548 553 526 517 549 561 563 560 533 531 518 767 269 547 546 813 766 529 578 501 516 270 577 564 562 273 814 502 267 768 566 581 503
540 541 542 539 555 537 556 545 536 550 543 551 522 548 554 523 535 544 557 552 549 538 558 521 534 547 546 553 532 559 273 813 270 528 767 524 269 525 563 520 533 814 519 766 271 561 527 274 531 267 815 564 560 818 812 768 275 526 517 562 529 272 259 0
541 540 550 555 551 542 545 548 549 539 556 552 543 536 537 547 554 544 273 270 546 522 553 557 269 558 535 271 274 523 534 813 538 267 275 814 521 563 818 767 815 559 272 564 532 561 0 766 528 279 266 533 812 519 259 524 525 520 268 560 280 562 768 276
542 540 543 545 536 541 537 544 539 550 555 535 548 534 546 551 547 556 813 538 522 767 523 549 532 814 766 533 552 273 554 528 557 812 815 521 768 531 524 818 558 274 270 553 811 527 525 271 816 765 559 269 275 769 529 520 0 817 810 563 526 519 267 770
543 536 542 544 534 545 535 813 767 537 540 546 541 766 814 547 532 539 548 533 812 538 550 768 555 815 523 531 528 811 522 551 556 549 765 769 816 818 273 810 770 527 524 274 529 521 530 557 552 817 554 805 0 808 525 270 497 764 773 275 558 526 1 271
544 546 543 813 545 814 547 542 767 815 548 536 534 812 541 811 535 550 540 816 766 818 768 537 273 549 274 817 810 533 805 539 551 555 532 0 770 538 769 808 1 765 807 275 531 556 523 806 528 522 809 552 3 270 271 773 554 804 276 790 2 771 802 530
545 542 548 544 541 550 543 547 546 540 536 549 551 555 813 273 814 537 539 815 534 535 818 274 767 556 552 812 270 275 0 271 766 816 538 522 554 811 817 532 768 523 533 1 272 805 553 557 269 3 528 558 267 810 276 531 521 769 770 765 279 524 806 808
546 544 814 547 815 813 545 818 548 816 543 811 817 812 767 542 274 805 550 273 0 541 1 534 536 549 810 768 540 766 806 807 808 535 275 551 3 537 770 555 2 10 533 804 276 809 539 769 271 802 270 532 272 790 11 538 765 5 552 9 556 771 531 773
547 548 546 818 545 273 274 544 815 550 814 0 549 541 275 817 542 543 813 1 816 551 3 540 805 271 811 276 536 767 812 272 555 270 534 2 806 537 552 10 535 278 539 807 5 768 810 277 766 4 808 280 556 279 804 267 554 269 9 770 533 553 802 11
548 550 547 545 549 273 541 274 546 551 544 542 818 275 540 543 271 555 270 0 815 814 272 552 813 536 1 276 817 3 539 537 556 554 267 269 816 767 534 279 280 553 535 278 805 812 811 266 277 2 522 766 4 558 5 806 768 538 557 281 268 523 10 564
549 550 273 551 548 270 271 541 275 274 547 552 545 272 555 267 269 540 279 542 280 553 818 554 266 546 0 544 276 278 556 543 268 3 539 281 564 815 259 536 1 277 814 563 286 558 537 265 813 817 264 557 4 522 258 287 5 535 561 2 534 816 767 282
550 549 548 541 551 545 555 273 540 547 542 270 552 271 544 274 546 543 554 275 556 539 269 536 553 272 267 818 537 0 815 814 279 813 558 266 522 280 535 557 276 564 563 534 3 268 767 1 278 259 817 523 538 559 816 281 561 812 521 811 277 532 766 258
551 550 552 555 549 541 270 554 548 540 269 553 545 271 556 273 267 542 539 547 558 564 563 272 275 274 266 279 543 557 259 268 544 537 536 546 522 561 280 559 258 818 562 0 523 521 264 281 535 276 560 565 278 265 815 813 814 538 519 534 3 566 286 767
552 553 554 269 551 555 270 267 564 563 550 549 556 541 558 259 540 271 268 561 258 266 548 562 539 557 559 273 545 279 542 565 272 560 264 522 566 280 537 547 275 257 265 519 260 274 521 568 536 543 261 281 544 523 567 263 577 576 255 546 520 247 278 578
553 269 552 554 564 563 259 558 267 258 561 551 555 562 270 556 565 268 559 266 541 549 566 557 560 550 257 264 271 540 568 260 539 279 567 261 255 519 576 548 265 577 522 247 542 272 273 545 521 263 280 578 281 537 572 520 575 275 256 262 569 254 248 523
554 553 552 558 563 556 555 269 551 561 564 557 559 562 541 540 539 560 267 550 270 258 259 522 549 565 519 566 521 542 268 577 537 545 548 271 568 520 266 576 523 567 578 257 536 273 264 518 279 525 543 260 255 575 272 538 547 579 517 261 572 544 524 265
555 541 551 540 556 554 552 550 539 542 553 558 549 545 557 522 548 537 269 270 563 536 559 543 521 561 564 267 523 273 271 547 544 519 538 560 535 562 259 546 520 258 525 534 268 274 266 272 275 524 279 532 566 565 813 528 577 767 578 818 814 518 517 280
556 557 555 539 558 554 540 522 559 541 521 552 551 537 553 519 523 563 561 542 560 520 550 536 525 269 545 538 564 562 549 543 524 578 577 548 518 270 535 517 566 267 528 258 532 544 565 259 527 576 534 526 547 579 271 273 581 516 567 568 268 546 575 266
557 559 556 521 558 519 522 539 520 554 560 555 523 561 525 518 540 578 517 563 577 537 524 553 552 541 562 538 551 566 542 579 581 536 576 564 516 526 269 550 515 527 580 528 535 575 545 565 543 588 532 567 258 549 568 503 514 583 270 259 548 501 267 574
558 559 554 561 557 556 563 560 553 519 562 555 552 566 564 577 539 521 522 269 578 520 551 540 565 576 258 518 541 567 568 259 523 579 525 575 537 550 267 517 542 270 581 572 549 588 257 524 268 255 580 536 573 545 538 574 548 569 260 271 543 266 515 264
559 519 560 558 557 561 577 578 556 520 521 554 518 563 562 566 522 579 576 539 553 517 555 525 575 581 552 567 564 523 580 588 565 540 568 269 258 537 551 524 574 572 541 515 573 516 583 538 589 259 542 587 550 526 582 536 255 569 267 514 257 571 527 270
560 577 559 561 566 519 558 578 576 562 563 557 575 579 518 567 554 588 520 556 565 568 572 521 573 574 553 581 580 564 258 517 522 589 552 555 539 525 569 571 269 255 587 583 590 515 259 257 608 523 540 586 551 611 582 254 516 541 524 570 537 267 584 260
561 562 563 560 558 566 559 554 565 577 576 553 564 567 568 557 519 258 556 578 575 552 269 572 259 555 579 255 518 257 573 521 520 588 569 574 522 551 539 267 571 260 540 268 581 580 254 541 517 247 270 589 525 264 256 523 608 550 611 570 261 590 549 266
562 561 566 563 565 568 567 258 564 560 576 558 553 559 255 554 577 257 572 259 575 269 569 552 573 519 557 578 260 254 571 556 247 574 579 267 256 268 588 555 264 570 518 261 551 611 608 253 248 520 521 270 252 589 539 266 522 580 590 581 540 541 612 262
563 561 562 553 564 554 558 565 258 269 566 552 560 559 259 568 556 567 557 576 555 257 267 577 551 255 519 268 260 270 572 575 578 264 539 541 247 540 569 266 522 521 261 550 549 573 254 579 520 518 256 271 571 574 588 279 265 248 542 263 537 523 548 525
564 258 259 553 563 269 565 562 552 554 267 268 561 257 260 558 568 264 566 255 270 266 261 247 551 567 560 555 559 556 576 265 263 279 256 271 557 549 248 254 262 569 577 550 572 541 519 540 575 281 300 272 539 280 246 571 578 573 303 249 252 548 273 299
565 568 258 562 257 255 564 566 567 563 561 259 260 247 576 569 254 553 572 256 269 560 558 554 261 571 268 264 575 248 577 573 552 559 267 570 252 253 574 262 249 611 266 556 557 519 578 263 251 270 246 555 608 612 588 265 551 579 213 216 212 245 250 610
566 576 562 567 561 568 560 565 572 577 575 563 573 559 558 569 258 255 564 571 574 578 588 579 519 257 553 554 254 557 608 611 259 570 518 589 269 556 590 552 247 260 580 256 253 581 520 612 521 587 555 610 252 586 607 268 267 261 264 583 522 248 517 591
567 568 566 572 576 569 562 565 573 571 575 255 561 560 577 254 574 570 258 563 257 611 608 564 588 253 256 559 558 612 579 578 247 590 589 252 610 553 260 259 519 554 607 212 269 609 213 518 248 580 557 586 251 591 587 552 261 216 556 581 605 249 264 268
568 567 565 255 566 562 569 572 257 258 576 254 571 561 563 564 256 573 247 575 570 260 560 253 259 252 577 611 553 574 558 248 612 608 559 269 261 554 588 251 264 212 249 268 578 213 610 579 552 216 519 590 267 589 262 609 557 607 246 556 250 263 214 518
569 571 570 572 254 567 568 255 253 611 573 612 576 252 566 565 212 256 608 575 610 257 213 562 574 609 247 258 216 251 613 607 561 211 590 577 260 214 560 248 563 588 605 564 249 589 614 217 259 606 579 250 210 591 208 215 578 261 209 559 558 616 586 553
570 612 571 569 253 611 212 610 254 213 609 572 252 613 608 573 211 255 567 568 216 214 256 607 614 605 576 251 575 574 208 210 566 565 590 209 616 257 606 217 247 215 604 562 249 589 615 248 219 218 588 250 258 591 592 260 577 207 204 601 561 617 560 586
571 572 611 569 570 573 608 612 567 610 575 576 574 568 253 254 609 212 607 255 566 590 605 213 613 565 252 589 588 562 606 577 211 614 256 591 257 560 216 561 586 592 579 604 214 258 247 251 616 208 578 601 563 587 210 209 593 615 260 564 580 248 559 217
572 573 571 567 569 576 575 568 611 566 574 608 570 255 562 565 577 254 590 588 612 610 589 560 253 561 607 579 257 212 609 578 258 563 252 256 591 586 605 559 213 606 564 247 587 613 580 558 592 519 614 518 211 260 216 553 251 259 581 604 593 554 248 214
573 572 575 574 608 571 576 611 567 590 588 569 589 566 607 577 570 610 568 579 591 586 612 560 562 578 587 255 565 605 561 609 606 592 580 254 253 212 593 559 518 519 563 581 583 614 613 601 604 257 258 252 585 558 213 594 256 600 211 564 595 584 247 557
574 575 573 588 589 590 608 576 572 586 579 577 591 571 611 607 587 567 580 578 566 592 610 560 569 583 606 593 570 581 568 518 585 605 594 562 612 561 519 559 609 584 601 565 600 255 595 604 582 254 614 439 563 558 253 440 212 515 520 613 596 517 557 441
575 576 574 573 588 572 577 567 566 579 589 590 608 560 571 578 611 569 568 580 562 561 586 587 518 559 607 591 519 581 565 570 610 583 563 255 558 592 612 254 585 606 557 593 258 605 520 594 609 253 584 564 257 517 582 554 515 212 553 521 601 556 256 600
576 575 566 567 572 573 577 560 574 562 568 561 588 571 569 579 578 565 559 608 589 563 611 590 255 519 558 570 580 518 258 254 564 587 257 586 581 607 557 610 554 553 612 591 253 583 520 256 556 259 247 269 521 252 609 260 592 517 212 552 605 606 585 515
577 578 560 579 576 575 519 588 559 566 518 561 574 580 573 581 562 567 558 572 589 557 520 563 587 583 568 590 517 521 565 586 571 608 554 556 515 569 582 525 611 553 564 522 258 591 584 255 585 607 539 516 570 552 555 444 514 257 523 269 254 610 594 592
578 579 518 577 519 581 560 580 559 588 520 575 517 576 583 557 587 561 574 566 515 589 521 558 582 573 525 562 567 586 584 572 590 563 522 556 516 514 444 585 554 568 608 443 523 565 539 591 524 571 441 439 553 503 513 512 569 594 526 445 611 564 555 607
579 578 580 588 577 581 518 587 575 583 589 574 519 560 576 586 559 573 590 582 515 520 517 584 566 585 561 572 567 591 608 557 558 444 521 562 594 443 439 514 441 525 571 516 607 611 568 563 593 440 592 569 522 556 445 565 512 438 554 513 503 610 442 606
580 583 581 579 587 588 518 578 582 584 589 515 577 586 585 574 519 517 575 444 443 439 441 520 590 560 514 594 576 591 559 440 573 445 516 512 438 521 525 566 593 608 442 513 557 572 561 592 567 503 558 607 446 429 562 430 571 595 522 611 511 437 596 524
581 580 518 583 515 579 578 582 517 587 519 520 584 444 588 514 577 443 516 589 585 441 525 560 559 521 512 445 586 575 439 513 574 503 557 576 590 440 442 438 594 524 522 558 573 561 566 526 591 446 509 511 523 504 556 572 502 567 562 608 593 448 436 539
582 444 443 583 515 584 581 441 514 445 580 512 439 587 442 513 585 518 517 438 446 516 579 511 440 578 503 436 509 588 520 448 586 594 589 519 437 525 504 577 430 434 435 447 521 574 507 429 526 465 575 590 591 502 560 559 524 510 593 451 557 433 505 431
583 580 584 582 587 581 585 579 515 443 441 439 444 518 588 586 578 589 514 440 445 594 517 438 442 577 512 574 519 590 520 575 591 516 513 446 593 560 430 429 437 436 503 576 573 511 559 525 592 521 608 509 596 595 448 557 434 607 566 572 435 504 561 427
584 441 439 583 582 443 585 587 438 440 444 580 442 581 445 515 594 586 446 514 512 579 430 437 589 588 436 518 429 578 513 517 591 593 434 511 590 448 596 516 574 435 431 577 595 428 509 520 433 427 503 592 575 519 447 451 432 452 525 573 504 598 600 465
585 594 440 439 584 587 586 583 441 438 429 593 580 589 582 591 430 443 596 588 595 442 590 437 581 592 579 444 427 574 428 445 515 431 600 598 436 446 518 578 607 575 599 514 434 512 608 606 577 597 573 433 424 601 432 517 603 435 426 513 576 519 511 660
586 589 591 587 590 594 585 593 588 574 592 580 583 607 579 608 584 595 440 575 439 573 600 606 596 429 581 601 578 577 441 582 611 576 599 598 605 572 438 518 610 571 443 430 427 603 604 515 444 560 567 442 602 566 428 597 660 437 519 609 569 445 570 614
587 586 583 580 589 585 588 584 579 594 581 590 439 591 574 582 440 578 441 593 518 575 443 577 515 592 438 573 444 608 429 595 607 576 596 442 519 517 445 430 514 560 600 572 606 520 437 512 611 566 559 427 571 446 601 598 567 516 599 436 513 428 605 610
588 589 579 574 575 587 580 577 586 590 578 573 576 583 581 518 591 608 572 560 585 566 519 567 584 607 571 594 611 582 592 559 593 561 515 439 562 520 517 569 568 440 606 610 441 558 443 444 557 570 595 605 565 600 563 521 514 601 612 438 596 429 255 525
589 586 588 590 574 587 591 575 579 573 608 580 585 607 592 583 593 594 577 576 578 572 581 611 584 606 571 518 595 440 439 610 567 600 560 582 566 605 601 596 519 441 569 429 515 570 443 559 604 599 561 612 568 438 609 598 562 603 444 517 520 430 614 427
590 589 591 574 608 586 607 588 592 573 575 593 611 587 606 610 572 571 605 594 579 576 601 600 585 580 595 577 583 604 567 609 578 570 612 569 596 566 603 599 614 584 581 440 602 439 560 598 518 429 568 613 582 212 615 660 562 519 441 561 427 253 619 616
591 592 590 586 593 589 607 606 594 600 608 595 574 587 601 588 585 605 596 573 599 611 603 610 575 598 604 440 429 580 579 602 583 571 439 584 572 660 427 614 609 576 597 577 612 581 578 661 430 441 615 570 662 619 438 582 567 569 428 621 518 613 566 443
592 591 593 600 606 601 607 595 590 586 599 603 605 594 608 589 604 596 598 602 660 574 610 585 587 611 429 588 614 573 661 597 427 440 619 609 615 662 621 575 571 439 612 572 580 579 583 620 659 584 665 616 613 664 570 428 430 663 576 426 622 569 577 438
593 592 595 591 594 600 596 586 599 598 601 590 606 585 429 607 603 589 440 587 427 660 597 608 602 605 574 604 439 588 662 430 428 584 661 583 610 665 573 580 611 438 426 664 575 441 579 621 619 614 431 437 615 424 663 609 659 666 571 582 572 581 443 442
594 585 593 440 586 429 596 595 591 439 587 592 584 427 430 589 598 600 590 438 441 583 428 599 588 580 437 597 607 601 606 431 574 582 603 443 442 579 608 660 424 426 581 665 662 575 444 602 605 573 436 445 432 604 433 434 515 578 446 664 666 423 661 518
595 596 593 598 600 599 592 594 429 427 597 603 591 660 601 662 606 586 440 602 585 665 428 661 607 590 426 664 430 589 604 587 605 439 666 663 621 424 608 431 659 619 438 584 574 437 425 588 667 669 441 610 583 615 654 614 668 655 611 580 423 573 658 620
596 595 427 598 429 593 594 597 599 600 428 440 592 426 665 430 660 662 585 603 591 424 586 664 431 601 666 439 661 606 437 438 425 602 587 590 667 589 663 584 423 607 441 668 669 432 421 604 659 621 605 583 654 442 433 608 422 588 574 619 677 655 580 443
597 665 598 662 664 427 426 596 599 666 660 595 429 428 663 600 603 669 661 667 668 425 424 654 593 594 602 655 659 601 670 592 430 431 421 676 621 653 440 423 677 591 606 656 672 657 658 585 671 422 619 642 604 586 679 437 432 713 439 680 712 607 675 438
598 599 597 595 596 660 600 427 662 603 665 593 664 429 426 661 592 601 594 666 428 602 663 591 606 659 440 424 669 621 430 667 654 425 668 586 585 604 655 431 607 619 605 590 439 658 670 423 589 421 437 657 587 653 438 676 615 656 677 622 608 620 432 584
599 600 603 660 598 595 662 597 601 661 602 596 593 592 664 606 665 427 663 621 659 591 604 429 594 619 426 605 607 666 655 654 428 586 658 669 615 590 620 440 622 585 657 614 668 667 424 608 430 589 610 425 623 653 656 587 642 670 431 439 609 618 626 611
600 599 603 601 595 592 593 598 606 660 602 596 591 604 661 607 597 662 605 594 621 590 586 427 619 429 659 664 665 663 608 615 589 614 610 585 440 620 426 587 428 611 574 609 622 658 666 655 430 588 616 654 573 439 669 618 657 424 613 612 571 626 584 575
601 606 600 603 602 604 592 605 599 607 660 593 619 595 591 661 621 615 614 598 610 590 620 608 596 662 659 609 586 611 597 616 594 622 663 589 618 613 658 664 574 612 427 429 626 617 665 573 208 571 585 587 624 655 570 588 623 212 211 440 657 627 575 572
602 603 601 621 619 661 604 660 600 599 606 659 615 620 605 622 592 662 614 658 598 663 595 607 618 593 626 616 597 591 624 623 664 610 596 655 609 657 617 665 627 608 590 613 654 639 625 208 611 427 594 206 586 642 612 669 429 640 207 656 666 589 628 194
603 602 599 660 600 601 661 621 598 595 662 606 604 592 619 659 593 597 663 605 596 615 664 607 591 620 658 622 665 614 427 655 594 654 590 657 429 610 618 586 623 626 608 426 616 666 609 669 624 589 611 642 428 617 656 585 613 440 639 653 668 627 574 667
604 605 615 606 601 614 602 619 620 607 603 616 609 610 621 600 592 613 618 599 622 661 660 617 608 611 208 591 612 593 659 626 590 595 211 212 207 598 658 627 624 206 570 571 662 209 586 573 663 574 596 589 625 623 204 597 194 594 213 205 572 210 195 569
605 604 606 614 607 610 601 609 615 608 611 592 602 616 613 612 619 600 603 591 590 620 208 571 593 570 212 621 211 599 618 573 617 574 595 660 589 586 661 572 622 569 209 207 598 213 253 626 659 575 594 588 206 596 210 204 627 662 658 576 567 214 624 587
606 601 605 607 592 604 600 591 602 610 603 608 614 593 590 599 615 609 611 595 619 660 586 621 589 616 598 574 620 612 661 613 573 571 594 596 570 659 618 662 588 208 572 212 622 575 587 597 617 211 585 569 429 427 663 626 658 576 440 207 664 253 209 567
607 606 608 605 590 592 610 591 611 601 604 574 609 593 573 589 600 614 586 571 612 603 602 572 570 575 595 588 615 613 599 594 569 616 587 619 212 576 660 598 596 567 585 620 211 579 621 208 661 253 580 577 566 213 618 617 568 429 583 440 254 662 597 578
608 611 607 590 573 574 610 571 572 589 591 575 605 606 592 570 612 588 609 586 569 576 567 601 604 614 593 212 587 613 579 600 566 577 568 253 594 580 595 254 615 211 616 602 603 578 255 585 213 560 562 599 565 208 583 619 561 252 596 581 598 518 620 660
609 613 610 612 614 212 605 211 616 611 570 208 604 615 607 608 571 606 213 209 253 617 210 569 207 601 214 620 573 618 619 572 204 590 216 592 602 252 254 215 591 574 219 206 205 600 603 567 203 575 621 589 626 622 255 627 217 568 593 251 576 195 218 586
610 609 611 612 605 607 608 614 570 613 571 606 212 604 573 616 590 211 569 572 601 615 253 592 208 574 591 213 575 589 602 209 567 600 619 254 620 617 576 586 593 214 210 603 588 252 207 618 568 216 255 204 566 599 595 621 215 587 219 256 660 577 206 622
611 571 610 608 570 612 573 607 572 609 569 605 590 574 212 606 575 613 614 567 253 576 591 589 604 592 254 211 213 568 588 601 566 255 586 616 252 208 615 593 577 600 214 565 216 579 562 209 587 256 602 210 560 603 619 257 578 617 561 251 620 595 580 594
612 570 212 609 610 611 613 253 571 211 213 569 614 608 605 208 572 254 214 616 607 252 216 573 209 210 604 606 567 255 615 215 568 590 574 251 207 256 617 575 204 217 219 576 601 592 218 591 566 620 589 618 565 619 257 203 247 602 588 205 250 249 562 206
613 609 211 208 212 616 614 612 209 610 213 210 207 605 570 617 615 214 204 611 253 604 618 219 215 571 216 620 607 606 205 608 203 206 569 619 252 601 254 195 218 217 201 602 572 627 220 573 626 251 221 194 622 200 590 592 202 621 603 255 574 591 256 196
614 616 609 615 605 604 613 610 208 606 620 617 612 619 211 618 607 601 212 611 602 207 209 608 570 621 206 622 204 603 592 626 213 210 571 600 627 205 253 590 591 214 195 661 599 194 573 624 569 660 659 593 625 219 572 203 574 215 216 658 595 201 200 589
615 620 614 619 604 616 618 617 605 602 622 621 208 626 609 613 601 606 627 206 207 610 603 624 211 607 661 625 209 659 194 612 658 600 204 205 195 660 212 592 611 599 623 608 639 210 196 628 570 591 193 200 213 663 593 203 590 595 662 571 657 598 201 214
616 208 614 617 615 613 207 618 609 620 211 209 604 206 204 605 619 610 212 205 612 627 210 626 195 622 194 606 602 213 203 601 611 621 214 607 219 570 625 200 201 624 196 215 253 608 603 571 220 216 193 592 202 600 661 659 658 199 628 221 569 197 623 218
617 618 207 206 616 208 205 627 620 615 195 204 194 626 209 614 613 196 619 211 625 200 622 609 604 203 201 624 210 193 605 212 219 621 197 199 628 602 610 612 202 220 214 198 213 606 639 215 601 190 623 658 192 180 659 156 221 603 607 630 611 570 661 178
618 620 617 626 627 206 615 622 616 619 194 625 624 207 195 208 614 205 621 604 196 204 193 628 613 602 209 639 623 658 200 605 609 659 211 601 197 201 661 190 606 603 203 638 610 210 630 192 212 199 612 629 660 198 640 180 657 219 607 600 202 599 637 631
619 620 621 615 602 622 604 618 626 659 661 603 601 614 658 624 616 605 617 660 606 627 623 600 625 599 206 639 663 609 208 662 613 657 592 607 207 194 610 628 655 598 595 195 640 593 638 205 211 193 664 209 591 597 612 642 204 196 611 608 654 641 212 596
620 618 619 615 622 626 617 621 627 616 604 624 614 602 206 625 658 194 659 208 207 605 623 601 661 603 639 613 195 606 609 628 205 660 193 196 204 209 610 600 211 599 657 607 638 663 200 640 592 612 662 212 655 190 630 210 197 201 629 611 203 637 598 642
621 659 619 661 602 622 658 620 603 660 615 623 663 604 626 601 624 599 657 618 662 655 600 639 606 605 614 625 627 664 598 640 642 616 617 654 597 592 595 628 641 638 206 656 607 665 593 194 637 669 609 596 653 208 652 610 643 613 207 591 193 195 666 629
622 626 624 620 619 621 658 623 618 625 627 659 639 615 602 628 661 617 206 657 194 604 638 640 616 603 193 614 663 660 601 655 637 195 207 641 642 196 605 629 630 208 662 599 606 190 643 205 600 613 654 609 656 204 200 664 635 192 197 631 652 644 634 209
623 658 639 640 624 657 622 638 659 637 641 626 628 621 625 642 643 655 619 661 663 620 629 627 644 656 652 618 630 635 602 636 647 654 193 660 194 615 634 662 603 653 190 206 645 650 646 617 631 664 604 795 599 196 713 632 601 669 651 794 195 616 192 633
624 626 625 622 639 623 628 627 658 620 638 618 621 619 194 193 640 659 206 629 630 637 657 615 617 190 196 195 661 602 641 643 631 635 616 634 642 192 655 604 207 663 205 197 644 636 614 603 660 632 200 208 189 180 601 656 652 204 191 605 662 633 647 654
625 627 624 626 628 193 194 639 622 618 206 630 190 196 638 623 620 195 629 617 192 658 619 631 197 640 637 615 621 205 200 207 634 180 616 189 659 635 632 191 657 198 208 204 602 643 641 636 614 604 661 178 633 199 201 644 181 188 186 187 642 209 655 663
626 624 627 622 625 618 620 194 206 628 619 639 617 623 615 621 193 658 195 196 638 616 659 207 602 630 190 205 604 640 614 629 208 661 657 200 637 197 192 204 603 631 605 601 613 209 641 660 663 180 634 655 635 609 643 642 201 606 198 189 211 191 632 199
627 625 626 194 206 618 624 193 617 195 196 620 622 628 207 205 639 615 190 619 200 616 197 630 623 192 208 638 204 621 658 629 180 614 201 631 198 209 199 604 659 602 640 191 203 613 189 637 178 634 211 661 181 632 657 609 605 635 210 202 601 603 186 219
628 625 639 630 638 624 629 193 190 626 627 623 631 194 637 634 622 640 635 192 196 632 206 618 658 189 636 195 620 197 633 643 180 191 644 188 641 617 657 619 621 187 659 795 200 186 798 205 615 645 642 181 207 198 797 178 794 616 655 661 647 184 602 14
629 630 634 635 638 628 631 632 637 190 633 639 636 193 625 188 795 189 640 644 624 798 192 623 797 187 643 645 794 627 626 191 194 186 641 799 14 180 196 622 796 658 197 793 184 657 15 647 206 785 646 181 195 618 786 185 642 800 16 801 620 182 178 659
630 629 631 190 628 634 632 193 189 192 638 635 625 633 188 639 187 191 637 624 180 194 798 186 627 196 197 636 626 795 640 623 797 184 181 14 644 195 206 185 622 15 799 643 178 182 618 198 794 645 200 658 796 16 641 179 183 620 18 800 617 205 793 657
631 630 632 189 190 634 188 629 187 192 633 186 191 193 798 628 635 180 184 14 638 185 15 197 625 797 181 196 795 799 636 639 194 182 637 16 178 18 627 624 183 800 179 17 796 198 626 644 640 195 174 794 623 206 801 200 645 12 643 159 793 622 175 177
632 188 631 633 634 798 630 187 189 629 635 14 190 797 186 799 795 192 184 15 191 628 636 16 638 193 800 796 185 637 180 801 18 17 794 639 181 644 625 12 183 182 793 197 645 803 640 196 791 624 194 643 178 21 174 13 627 179 786 623 626 802 792 785
633 798 632 634 797 188 635 799 795 631 14 629 187 796 630 636 189 800 801 16 794 15 190 793 186 638 184 637 645 791 644 803 628 12 192 17 191 786 193 792 185 18 802 639 643 785 640 787 790 13 180 183 804 11 625 21 181 783 182 646 784 624 807 197
634 635 629 632 633 631 630 188 795 798 636 797 638 637 190 628 189 187 799 644 794 14 796 639 645 193 192 640 793 186 643 625 191 800 184 15 801 16 624 623 786 785 180 641 791 185 194 627 646 626 197 647 803 17 196 12 792 181 18 787 783 658 182 622
635 634 636 629 795 633 637 638 644 632 794 630 645 797 631 798 643 640 628 188 639 793 796 799 785 190 786 641 189 646 623 14 187 647 193 625 624 783 801 192 800 787 791 781 792 784 186 657 642 658 16 648 191 15 626 184 652 627 622 650 803 782 194 790
636 644 635 795 645 794 637 643 634 638 785 629 793 640 633 786 646 797 647 796 641 632 783 639 630 781 798 628 631 787 799 648 784 623 188 792 642 782 650 652 657 649 791 190 801 624 14 625 658 789 189 187 800 780 193 779 656 790 651 717 655 777 192 626
637 640 638 643 644 636 635 639 641 629 623 645 634 628 647 795 657 794 642 646 630 624 658 785 652 633 625 632 631 650 793 786 622 656 655 626 797 648 190 659 781 193 783 649 796 798 188 627 651 621 663 189 653 654 799 784 192 194 713 787 661 620 782 780
638 639 637 629 640 628 623 635 630 624 643 636 634 644 625 641 658 631 626 657 193 190 622 632 795 645 633 627 642 647 794 659 194 646 192 652 188 189 621 797 655 785 798 618 620 656 196 793 619 206 650 187 786 663 796 661 191 197 799 195 180 648 781 186
639 638 623 624 628 640 637 625 658 622 626 629 657 630 643 641 627 635 193 659 644 634 621 636 642 620 190 618 194 619 631 655 206 632 661 647 645 652 663 795 196 192 656 633 615 617 602 195 794 646 189 654 650 197 188 660 785 603 180 653 798 797 191 616
640 637 641 643 623 638 639 657 644 642 658 636 647 624 652 635 628 629 655 645 656 659 646 622 650 625 634 630 626 663 795 794 621 785 654 653 661 651 648 649 627 713 193 631 633 619 632 781 620 190 786 793 783 618 715 662 194 660 602 797 669 717 664 714
641 643 642 640 652 657 647 637 656 644 650 655 623 646 658 638 639 651 653 645 636 654 649 713 659 663 648 785 635 624 715 794 781 714 629 628 717 622 661 621 712 669 795 670 780 783 634 786 664 625 662 626 630 793 711 660 716 671 619 782 779 709 718 784
642 657 656 652 641 655 653 654 640 643 650 647 663 658 713 651 623 659 637 669 644 649 646 639 670 712 714 661 664 638 715 662 648 621 645 624 622 636 717 671 660 785 668 711 665 709 781 780 635 628 716 666 619 602 626 629 597 794 603 625 672 599 673 710
643 641 644 640 637 647 645 646 636 642 652 638 657 650 623 639 785 635 794 656 648 649 795 658 655 781 629 651 786 634 783 628 653 793 624 713 715 717 659 654 780 630 663 633 714 622 782 784 625 797 632 779 626 796 621 787 712 631 661 669 716 718 670 711
644 645 636 643 637 646 647 794 640 635 785 641 795 638 786 793 781 648 783 634 629 650 639 652 642 649 623 657 633 784 797 796 628 782 656 787 630 632 780 651 658 717 779 655 624 631 715 798 792 799 713 789 625 653 188 659 714 190 791 622 654 778 777 718
645 794 644 785 636 646 786 795 793 643 783 647 781 637 635 648 784 787 641 782 640 796 638 634 649 797 650 629 633 792 780 779 652 789 642 717 639 632 777 778 799 791 651 798 657 623 715 630 656 628 790 721 771 801 631 788 188 718 776 809 658 720 713 655
646 647 648 785 781 645 649 644 643 783 650 780 786 794 717 641 636 782 652 779 651 784 715 637 793 640 642 795 718 787 656 635 714 713 778 716 721 720 657 638 789 777 653 711 719 655 796 792 712 623 639 634 706 629 776 775 797 724 654 788 707 658 633 771
647 646 650 643 648 641 649 652 644 645 785 642 781 651 640 637 717 656 715 780 636 783 794 657 713 786 714 653 655 779 782 638 795 635 718 716 623 793 784 712 654 711 639 658 720 787 663 629 670 721 634 719 778 706 659 709 669 671 707 789 710 628 777 796
648 649 646 781 780 717 647 650 785 779 783 715 782 718 651 645 786 652 644 716 720 643 784 721 714 794 641 719 778 711 706 713 636 793 642 656 787 777 724 637 707 789 775 640 712 795 653 776 729 728 657 710 635 709 788 655 792 705 722 638 654 708 671 796
649 717 648 650 715 780 651 647 646 714 781 718 716 652 713 711 779 785 656 643 783 641 720 706 719 712 642 645 782 707 644 653 721 709 710 786 784 729 794 778 640 657 671 655 708 670 724 637 636 654 705 728 793 673 775 777 787 669 795 789 703 776 638 635
650 651 649 652 647 715 648 713 717 646 714 656 642 641 653 643 780 712 716 711 781 644 718 657 655 785 654 645 640 670 709 779 671 637 783 710 707 706 669 719 636 782 720 663 794 786 673 623 658 708 638 784 721 659 729 672 639 664 668 793 635 795 705 778
651 650 714 713 715 652 649 712 653 656 717 711 716 647 642 648 709 670 671 780 646 641 710 654 718 707 655 669 643 673 706 657 781 708 719 672 644 785 640 779 668 663 720 674 645 692 729 664 705 783 637 703 675 782 658 676 623 721 659 666 636 693 662 786
652 656 642 650 641 651 647 653 713 655 657 643 649 654 714 715 646 640 712 648 717 670 663 644 669 637 658 711 623 671 780 645 659 716 709 781 785 664 639 638 636 718 710 662 668 661 673 783 794 672 707 779 621 665 706 635 786 660 666 624 622 782 708 719
653 656 713 654 670 669 652 712 655 651 642 671 714 650 663 664 657 668 709 641 715 672 711 673 662 666 665 649 647 710 659 667 676 643 717 658 661 716 640 597 675 660 674 648 646 426 623 708 707 677 425 780 621 644 692 637 718 598 599 691 706 639 603 781
654 653 655 669 656 663 664 670 642 713 662 657 652 668 665 712 659 666 671 661 651 641 660 597 658 650 714 667 672 426 709 621 598 623 676 599 673 640 647 715 603 643 711 649 425 602 675 710 427 677 622 639 600 596 717 637 674 595 646 619 716 648 644 421
655 663 654 657 642 656 653 659 652 658 641 669 664 661 662 713 623 670 640 660 621 650 651 643 665 712 647 668 597 639 666 603 622 671 599 602 714 637 598 624 619 638 649 715 644 667 426 646 709 672 600 626 620 711 648 601 673 676 717 595 628 645 427 625
656 652 653 642 655 654 713 657 651 641 650 669 663 670 712 647 714 643 664 640 715 649 671 658 659 662 623 668 709 646 661 711 717 648 665 637 644 666 672 673 660 716 639 621 710 597 780 638 667 645 676 781 785 622 718 636 426 624 707 599 603 675 674 598
657 642 655 658 641 623 656 659 640 663 652 654 643 653 639 661 621 637 647 638 622 650 624 662 713 664 669 660 644 651 619 670 626 602 646 628 603 649 625 636 712 620 665 645 714 599 629 597 715 635 648 668 671 627 598 666 618 785 717 615 601 600 630 634
658 623 659 657 621 622 639 624 661 655 640 663 642 619 641 626 638 620 602 660 637 625 656 654 643 628 662 603 652 618 627 615 664 653 599 604 644 601 629 647 669 600 650 194 630 193 617 636 206 597 635 598 713 665 651 614 616 606 670 646 605 634 645 190
659 661 658 621 663 657 655 660 623 622 602 619 662 603 642 654 624 664 599 620 639 640 656 626 641 601 600 615 604 598 597 653 669 652 618 665 638 625 643 637 627 628 606 595 605 670 713 666 614 592 596 647 617 650 668 616 593 644 426 651 206 427 194 629
660 661 599 603 662 598 602 600 663 659 597 621 664 601 595 665 596 619 655 658 592 654 593 606 604 427 657 669 666 622 426 620 605 615 429 591 623 642 656 607 594 653 668 428 667 670 614 624 626 618 586 425 641 590 652 639 424 640 440 610 713 616 608 585
661 660 659 621 663 603 602 662 599 658 619 655 664 600 601 598 657 622 597 654 623 604 665 620 595 642 615 606 669 656 624 592 596 626 653 593 605 639 666 641 640 618 427 426 652 614 670 668 607 591 625 627 616 429 713 638 667 643 617 594 637 628 428 610
662 664 660 663 597 661 665 599 598 603 654 659 669 655 666 600 595 426 602 596 621 427 668 657 653 658 601 656 670 667 642 593 619 429 592 425 428 606 623 713 622 604 652 424 676 671 594 641 672 712 591 620 677 615 605 421 640 624 651 430 607 431 440 639
663 655 662 654 661 659 664 660 657 669 658 656 642 653 621 665 597 603 599 602 598 623 652 670 666 641 668 713 619 622 600 640 426 601 595 667 639 712 651 596 671 624 427 650 643 620 604 647 626 637 714 672 638 425 615 676 606 593 592 709 429 428 618 673
664 662 665 669 597 663 654 666 660 668 655 426 598 661 670 653 667 599 659 427 656 603 596 425 657 595 642 671 676 713 600 621 672 602 658 428 712 424 652 429 677 421 601 593 673 651 641 709 675 623 619 714 592 650 423 680 622 594 431 679 640 422 606 430
665 597 666 664 426 662 669 668 667 598 427 425 654 663 660 596 599 428 670 424 676 595 661 429 655 653 677 421 603 672 600 671 659 656 423 431 593 713 422 679 602 430 675 712 657 680 594 621 642 673 601 592 658 440 691 709 652 432 678 651 437 714 591 674
666 667 426 665 668 425 664 669 597 676 670 677 427 424 662 421 672 428 654 598 671 663 653 596 679 675 423 680 422 660 429 599 673 655 431 691 712 595 713 661 656 678 709 430 603 674 600 419 432 659 642 418 657 682 593 714 652 594 651 440 681 690 710 420
667 666 668 425 676 426 677 421 665 672 669 424 680 670 679 675 664 597 422 671 691 423 428 427 673 678 654 662 653 431 712 598 674 419 709 682 596 663 429 713 681 418 690 432 420 655 660 430 656 599 710 595 692 714 661 694 684 417 651 433 415 414 437 685
668 667 666 669 670 676 672 665 671 426 425 664 677 675 654 673 653 421 712 597 680 709 713 662 691 679 424 674 663 656 655 427 422 428 714 598 678 423 710 651 660 690 682 652 692 711 642 596 661 599 681 657 431 419 429 694 659 708 650 715 595 420 603 418
669 670 654 668 664 653 666 665 671 663 667 655 656 713 662 712 672 676 597 426 642 673 709 652 425 651 657 714 660 675 677 661 598 659 650 427 599 421 674 710 711 641 424 680 658 715 691 603 428 596 679 621 595 649 647 692 600 623 602 422 640 716 423 429
670 669 671 653 668 712 713 672 654 709 673 656 676 666 667 664 714 651 675 665 655 652 710 674 663 711 677 642 426 662 425 650 715 691 597 657 692 680 708 421 716 649 641 690 707 679 660 661 717 659 647 598 424 694 427 682 678 658 693 599 422 428 706 643
671 673 712 670 709 672 713 668 710 674 675 669 714 653 676 711 651 692 667 654 708 691 656 666 677 715 690 716 664 652 680 707 650 665 694 425 655 693 426 642 682 421 703 717 649 663 679 706 662 689 678 597 718 657 705 681 647 641 698 685 422 424 780 648
672 675 673 676 671 668 674 670 709 691 677 667 712 680 669 710 690 666 692 425 713 682 653 421 679 694 714 678 711 708 426 654 665 664 681 689 693 651 422 656 685 424 707 715 703 716 684 597 423 655 420 652 662 663 419 698 650 688 695 428 642 427 686 683
673 709 674 671 672 675 710 712 692 670 676 708 691 690 711 714 668 694 713 693 677 669 680 653 667 707 682 703 651 689 716 715 666 654 698 425 679 678 656 685 421 681 706 705 650 695 664 652 665 717 426 702 684 649 704 688 718 655 696 422 642 729 686 701
674 673 692 675 690 694 709 672 710 691 671 708 693 689 676 682 712 711 703 680 698 670 677 685 707 714 668 695 681 713 678 667 688 702 716 684 696 679 669 705 715 653 704 651 686 421 706 425 687 666 697 701 699 420 654 683 422 729 717 718 656 131 426 650
675 691 672 676 674 673 680 690 677 682 671 692 668 709 667 694 678 679 670 681 421 689 710 425 712 685 666 669 708 684 693 422 420 711 426 713 688 714 686 695 653 419 698 665 683 703 424 423 654 409 707 664 651 687 696 716 715 702 656 418 410 131 597 428
676 677 672 667 675 668 680 691 425 421 679 666 673 671 670 678 674 426 669 682 422 690 709 665 424 681 712 423 664 692 419 420 653 710 694 654 713 597 428 689 685 684 427 714 418 662 708 711 431 409 683 656 693 432 663 651 686 410 655 598 688 414 429 596
677 680 676 421 679 425 667 691 675 678 422 672 668 666 682 426 423 424 681 419 420 673 690 671 674 670 665 418 669 428 684 409 685 431 709 432 410 683 664 689 427 694 414 597 692 712 415 686 710 417 654 653 688 713 662 433 430 429 134 598 408 411 596 413
678 679 680 681 420 682 691 419 677 422 421 409 684 683 410 676 675 685 425 418 690 414 423 686 667 134 689 672 408 424 415 411 688 674 694 133 668 413 432 673 131 426 666 417 416 431 406 692 671 428 695 687 405 132 433 135 670 407 709 665 452 412 669 403
679 421 678 422 680 677 419 420 425 423 691 681 676 682 418 667 424 675 409 410 414 672 684 426 683 432 668 415 666 690 431 685 428 417 674 411 673 408 413 686 134 689 433 665 416 671 427 670 694 669 688 452 430 133 597 692 437 709 664 453 429 405 131 406
680 677 678 679 691 676 682 421 675 681 422 420 425 672 667 419 690 684 685 674 668 423 409 673 683 689 424 666 418 694 410 426 671 686 414 692 670 688 709 134 669 432 415 665 428 408 431 710 695 712 411 131 133 417 693 413 687 427 664 708 597 698 416 433
681 682 684 678 683 420 685 680 691 409 686 679 690 689 419 688 134 677 410 675 422 133 421 131 408 676 694 414 674 687 695 132 672 418 411 425 423 406 135 667 673 692 130 407 415 413 698 424 668 405 697 693 136 122 671 416 696 432 403 417 666 709 426 400
682 681 691 685 684 690 678 680 689 675 686 683 688 694 679 420 677 674 409 676 695 672 131 692 421 687 673 419 422 134 133 410 698 693 425 667 408 132 671 130 697 668 696 709 414 710 423 418 708 122 135 411 670 666 406 424 121 703 702 407 712 136 415 426
683 684 134 409 681 686 133 420 408 685 410 682 678 131 132 135 406 688 407 411 419 680 689 414 679 691 130 687 690 405 136 403 422 413 400 695 418 677 397 137 421 694 675 415 122 398 129 412 416 676 404 423 399 697 674 121 128 425 123 396 417 140 672 698
684 686 685 681 683 682 688 131 689 409 133 134 678 420 690 691 132 687 680 408 695 410 130 694 679 135 675 419 407 406 677 136 122 422 674 411 697 414 421 676 698 692 696 121 129 672 418 137 693 405 673 403 413 400 123 397 425 415 423 667 398 128 120 118
685 684 686 688 689 682 681 690 131 683 687 695 694 691 678 133 132 680 130 409 134 420 675 697 698 674 122 696 692 679 693 121 677 408 135 136 410 676 673 672 419 421 407 702 422 123 129 699 118 406 120 708 414 710 703 411 709 137 671 425 667 418 119 397
686 684 685 131 688 683 133 687 132 689 681 682 130 134 695 690 409 122 135 136 678 420 694 697 691 408 121 407 129 680 696 410 406 698 123 137 675 679 674 120 397 419 692 128 411 693 677 118 127 400 414 699 403 422 140 676 398 421 702 126 405 672 673 119
687 688 695 122 697 131 130 121 686 689 685 696 132 120 123 698 684 118 694 133 690 699 136 129 682 119 683 681 124 702 693 126 127 135 134 692 691 128 700 115 117 137 125 674 114 116 409 678 701 407 108 675 703 420 680 142 140 408 397 113 708 733 141 406
688 687 685 686 689 695 131 684 130 697 682 690 122 694 132 681 696 683 121 133 698 691 134 136 123 693 118 120 692 678 699 129 674 135 409 680 675 702 420 119 408 407 137 127 124 679 126 128 673 703 410 677 708 406 700 672 676 701 117 397 419 710 115 140
689 685 690 694 688 695 682 686 687 684 698 691 692 681 696 674 697 693 131 675 683 680 678 130 702 122 121 673 132 699 133 708 703 672 118 710 420 676 677 409 679 134 709 701 120 671 123 136 700 704 119 135 421 408 129 707 419 410 422 117 711 712 667 705
690 694 689 682 691 674 685 675 692 688 695 681 673 693 684 680 698 672 686 678 676 687 677 710 708 709 696 671 679 683 697 703 131 702 420 421 712 668 409 667 699 711 670 133 707 130 422 122 121 425 132 134 419 118 701 704 714 705 410 666 713 669 700 716
691 675 680 682 690 677 676 678 681 672 674 679 685 673 689 694 684 421 692 667 420 671 425 422 668 686 688 683 709 419 409 670 710 695 693 666 712 423 708 698 426 410 687 131 424 669 134 418 133 414 696 703 711 665 408 713 697 714 653 132 702 664 428 707
692 674 693 694 708 710 673 690 703 709 698 675 689 707 711 672 702 671 691 695 712 696 682 704 705 714 685 716 701 676 688 706 680 670 697 699 713 715 687 681 677 729 684 668 686 651 700 678 732 718 730 118 719 731 667 653 717 679 669 131 121 733 421 728
693 692 703 698 708 694 702 674 710 704 696 701 690 695 689 707 705 699 673 709 697 711 700 732 706 675 688 118 685 716 731 691 687 729 730 682 672 671 733 712 714 117 734 121 719 686 715 718 684 739 676 728 681 680 122 670 713 131 119 717 651 727 735 83
694 690 689 692 693 674 698 695 685 682 688 696 691 675 708 673 703 702 710 687 697 686 684 709 672 681 699 680 671 701 676 131 704 707 678 118 711 121 677 705 712 683 122 700 130 679 714 732 670 716 132 420 706 668 133 117 667 120 409 421 733 119 731 729
695 687 697 696 689 688 698 694 685 121 690 699 686 122 118 693 131 702 130 692 684 682 120 674 132 119 700 703 681 701 123 691 117 708 683 133 675 124 704 116 136 129 673 115 732 710 733 680 678 126 134 114 127 672 709 135 705 409 125 420 707 83 731 84
696 697 698 699 695 118 702 687 121 700 693 694 689 701 117 688 119 122 120 703 692 733 732 690 116 704 685 115 130 131 686 708 124 123 83 674 731 84 734 682 684 114 705 132 710 735 126 85 691 707 125 730 82 673 681 675 129 739 133 136 127 113 709 86
697 696 695 121 118 687 699 698 122 120 688 119 702 689 130 700 117 694 123 131 124 685 693 116 686 115 701 690 132 114 126 733 692 684 125 703 732 129 84 83 682 127 136 704 85 133 674 113 708 108 681 683 731 691 734 82 109 128 86 112 735 142 705 675
698 696 702 693 695 694 699 697 689 703 692 701 118 700 690 687 688 704 708 674 121 732 685 117 733 710 705 122 119 731 682 686 707 673 120 131 691 116 675 684 734 709 130 730 83 711 115 706 681 729 123 672 735 124 739 84 132 716 671 680 683 114 712 714
699 118 696 700 702 117 697 698 701 733 119 732 116 695 121 83 693 115 704 120 84 687 703 734 731 694 122 735 124 689 688 82 114 692 85 705 739 708 123 730 690 86 80 130 81 685 125 736 131 126 77 686 674 113 737 88 707 738 112 740 710 729 132 682
700 733 117 699 732 701 702 118 83 734 735 696 731 116 704 698 84 119 697 739 82 115 703 80 693 730 736 81 695 121 737 705 738 85 120 86 740 77 114 694 124 687 708 71 692 729 122 746 727 689 747 745 88 76 707 79 688 726 87 728 706 112 125 113
701 732 702 704 700 731 733 703 699 734 698 730 705 693 117 696 739 735 118 83 708 729 740 707 697 738 692 706 695 727 694 737 116 728 736 84 80 119 710 726 719 82 121 689 745 716 674 81 115 711 746 687 690 718 741 725 120 688 709 747 71 673 720 757
702 701 698 699 696 693 700 703 704 732 118 733 697 731 117 695 694 705 708 692 734 730 689 707 83 739 735 121 687 690 710 119 116 674 729 688 706 84 740 120 115 122 685 711 738 673 709 728 727 716 737 82 719 736 80 682 686 124 675 691 131 81 718 130
703 708 693 704 705 707 702 692 701 710 698 706 729 730 694 711 732 731 716 674 696 709 699 700 719 673 690 728 718 695 734 733 714 689 739 715 727 697 712 118 671 740 717 117 675 720 672 735 651 738 691 688 713 687 726 780 685 682 83 649 724 725 670 121
704 705 701 703 730 731 732 702 729 693 707 708 734 739 706 700 733 698 728 727 740 699 719 692 710 696 716 738 735 711 117 718 726 694 737 118 720 83 725 674 695 709 697 736 745 724 715 741 717 714 757 673 690 80 689 746 116 780 712 84 723 119 721 742
705 729 704 706 707 703 730 719 708 728 716 701 731 718 727 693 711 702 710 732 739 720 740 692 734 717 715 698 726 724 714 725 709 700 780 733 738 674 699 694 696 721 673 712 649 735 757 651 779 723 737 741 745 117 671 648 713 690 695 650 118 736 722 775
706 707 729 719 716 718 705 728 711 720 717 708 715 703 730 704 780 710 714 727 724 649 779 721 709 651 693 731 648 725 701 692 712 740 650 726 739 702 713 732 781 673 723 674 775 671 734 778 757 646 782 698 722 738 647 694 652 783 741 653 700 733 670 785
707 706 716 708 705 711 710 703 729 718 719 715 704 714 709 717 693 692 728 730 712 720 651 780 673 674 649 701 702 713 671 731 727 694 650 698 648 724 732 779 672 721 739 670 740 690 653 675 725 734 652 726 696 700 781 699 647 656 646 689 733 695 738 691
708 710 703 707 692 693 711 709 705 674 716 706 673 704 694 714 702 698 712 729 671 715 701 690 718 719 672 675 730 717 651 713 689 696 731 728 695 670 732 691 699 649 700 780 720 650 676 653 682 727 697 685 734 739 733 668 688 680 118 669 648 740 652 656
709 710 673 712 671 711 714 674 672 708 692 713 670 675 707 651 715 716 653 693 668 676 703 669 694 690 691 706 717 650 656 654 652 649 705 667 718 677 680 666 689 698 682 704 729 719 642 780 655 664 702 648 425 665 647 685 695 679 421 678 701 663 426 681
710 709 708 711 692 673 707 674 712 714 671 716 703 693 715 672 706 713 705 694 651 675 670 690 717 718 704 729 698 653 719 691 702 649 676 650 668 689 669 701 780 656 652 730 682 695 654 728 696 680 720 677 648 667 685 731 732 699 647 666 642 688 655 681
711 714 716 710 707 715 709 712 708 651 706 717 713 718 671 673 649 692 705 703 650 674 719 780 729 670 653 693 672 652 648 656 704 720 675 728 694 647 669 654 730 646 690 779 668 642 702 676 781 698 701 691 721 641 655 724 727 731 689 667 643 785 657 782
712 713 671 709 714 670 711 651 653 673 710 715 672 669 656 650 716 652 654 674 668 708 707 675 649 692 717 676 642 655 706 667 718 664 666 647 703 693 691 663 648 780 641 690 657 694 677 665 705 719 646 680 662 729 425 426 643 682 704 597 720 421 781 689
713 712 653 651 714 656 670 652 671 650 715 709 654 711 669 642 649 655 710 673 716 717 672 647 668 641 657 663 664 707 648 708 674 646 780 718 643 676 675 666 706 692 667 665 662 640 659 658 781 719 644 703 677 661 691 705 623 426 597 693 637 785 729 645
714 711 651 715 712 713 709 716 710 650 717 649 671 653 707 652 670 673 656 708 718 706 780 648 647 672 674 654 669 692 642 719 705 646 703 655 729 668 641 675 720 693 781 657 779 676 643 704 694 663 728 664 690 785 667 666 691 644 721 640 730 783 645 665
715 717 714 651 716 649 711 650 718 780 713 712 648 707 706 652 710 709 647 719 646 653 656 708 720 671 781 779 729 705 670 642 673 641 703 785 643 654 728 721 692 783 674 782 669 655 672 724 644 645 657 693 704 730 778 668 640 786 784 675 727 637 775 663
716 711 707 706 715 718 717 714 719 710 649 780 651 729 708 705 720 709 712 650 648 713 703 728 779 704 692 671 673 730 652 693 721 724 781 647 646 674 653 727 670 656 782 672 701 702 731 783 725 785 642 694 778 775 641 675 698 654 740 669 726 643 723 739
717 649 780 715 718 716 648 650 651 714 711 706 719 720 779 781 646 707 647 713 729 652 721 712 710 782 785 783 705 728 709 724 708 656 653 778 641 643 645 642 784 671 644 786 703 775 673 670 730 727 704 777 794 776 692 725 654 722 655 723 674 657 693 640
718 719 706 717 716 780 720 715 729 707 649 779 728 711 648 705 721 724 714 651 781 650 708 710 730 727 782 646 703 778 775 704 725 647 712 713 783 709 723 785 722 652 726 776 784 740 777 731 692 693 671 673 757 786 653 739 656 701 645 759 674 643 760 789
719 718 720 706 729 728 716 724 705 780 707 717 721 727 730 779 715 725 711 649 704 648 723 775 703 708 726 740 714 722 778 781 710 731 782 757 651 739 650 776 701 759 646 783 709 741 738 693 712 732 777 760 734 713 647 692 785 784 702 758 745 772 652 743
720 719 724 721 718 779 728 780 729 706 717 775 778 725 716 723 727 722 782 648 781 705 649 707 715 776 730 726 777 783 757 711 759 760 784 740 646 785 714 704 772 650 651 789 758 708 703 741 647 786 739 788 731 710 787 738 743 774 645 713 773 712 709 761
721 779 775 724 720 778 722 776 782 780 777 723 719 718 728 781 725 760 783 784 772 648 717 759 789 729 788 706 727 649 785 716 786 757 787 773 646 726 774 758 715 771 730 705 707 761 740 793 647 650 741 645 755 792 711 794 764 651 770 714 743 809 704 739
722 775 760 723 759 724 776 721 772 725 778 758 774 761 777 757 720 755 779 773 728 788 727 726 764 782 719 762 741 789 743 763 784 780 718 729 769 756 752 771 740 783 781 770 765 742 730 787 706 530 494 745 717 648 754 738 786 496 739 768 751 785 705 809
723 759 725 722 724 757 758 760 775 726 721 727 728 755 741 761 720 776 743 772 778 740 774 719 752 762 779 729 742 756 777 730 745 764 738 718 763 773 739 782 788 706 751 780 754 705 494 744 789 731 746 753 737 784 781 717 769 783 765 716 496 530 704 734
724 721 720 723 725 722 775 728 719 727 779 778 759 729 718 757 776 726 760 780 706 758 782 730 777 740 772 741 717 705 716 781 648 743 761 755 707 774 783 784 739 788 649 789 738 715 773 704 731 745 742 752 785 711 646 762 764 787 786 756 703 771 734 708
725 723 757 726 727 724 728 759 741 758 722 740 743 720 775 730 721 729 719 760 738 745 742 739 755 752 761 706 731 718 776 705 778 756 779 737 746 751 772 744 734 762 704 774 780 777 707 732 716 753 782 717 736 764 763 735 754 701 747 773 703 494 788 748
726 740 727 757 741 725 738 745 739 743 728 742 730 723 758 737 724 731 746 759 729 752 734 744 751 722 755 719 720 705 736 732 704 735 756 747 721 760 706 775 753 761 701 748 733 718 80 762 71 707 750 703 779 776 754 700 778 716 780 702 69 772 83 774
727 726 728 740 725 730 757 729 739 741 738 724 723 731 719 705 745 720 704 706 743 734 742 758 737 759 722 732 718 721 746 701 775 707 735 752 703 736 716 744 755 760 733 779 751 780 747 717 778 756 702 708 700 761 776 80 711 748 715 693 753 772 762 71
728 729 727 719 730 724 720 725 706 705 726 718 740 723 721 757 739 704 707 731 716 722 741 738 780 775 779 717 759 703 734 758 745 732 701 778 743 708 711 715 760 737 742 776 649 648 782 710 702 746 781 714 735 693 733 755 777 752 772 700 736 761 651 783
729 706 728 719 705 730 707 718 727 720 704 716 724 703 731 740 725 708 726 739 717 711 780 701 721 715 732 710 723 779 757 734 738 693 702 714 649 741 775 722 692 648 709 745 733 651 700 778 737 759 698 735 781 712 650 758 782 743 742 674 673 776 713 699
730 731 727 729 704 739 705 740 728 726 734 732 701 738 706 719 703 725 707 733 737 757 741 702 745 735 720 724 718 700 708 716 723 693 746 736 742 743 699 711 721 698 710 117 83 80 717 758 780 722 692 759 747 696 744 715 775 779 752 714 71 118 751 709
731 734 732 739 730 701 704 740 733 738 735 700 705 737 727 702 729 726 736 703 728 745 83 117 699 746 80 741 706 725 707 693 719 757 698 747 742 708 696 118 81 71 82 84 743 116 724 744 720 718 716 723 692 697 710 79 748 711 751 119 694 758 695 752
732 731 733 734 701 700 735 704 739 702 730 117 699 83 738 740 737 736 705 703 80 118 698 696 727 693 729 84 116 82 745 726 81 746 728 697 708 747 71 707 119 706 741 115 695 719 692 742 725 757 694 79 77 86 121 85 744 710 76 743 716 120 718 70
733 700 732 734 735 83 117 701 731 699 739 80 702 84 736 116 82 118 737 704 81 738 730 696 740 119 698 115 71 703 746 747 77 86 697 705 745 85 79 693 727 76 726 121 729 695 120 114 88 741 70 728 87 124 708 742 78 744 707 694 748 706 692 112
734 731 732 735 739 733 738 737 736 701 740 700 730 83 80 704 745 117 746 727 702 726 747 81 699 71 705 82 741 84 729 703 742 728 116 118 757 744 79 725 696 698 743 748 693 70 706 77 707 719 119 76 751 69 86 115 708 697 85 752 724 723 78 720
735 734 736 80 733 737 83 732 739 731 738 81 700 71 746 82 117 747 745 701 740 84 79 730 116 704 699 70 77 76 702 726 742 744 748 741 727 86 118 69 78 115 85 119 705 743 68 696 757 72 703 751 87 729 728 698 88 725 75 697 693 750 752 74
736 737 80 735 747 71 746 738 734 81 745 79 739 83 733 70 748 744 82 69 731 732 740 742 741 76 84 700 117 68 726 78 77 751 72 730 743 701 750 727 749 116 86 757 67 704 752 699 753 73 87 702 74 725 65 85 75 66 118 115 728 479 705 88
737 736 746 738 745 735 747 739 734 80 740 71 742 744 731 741 748 726 732 733 81 743 83 751 730 79 727 69 70 757 82 700 701 752 725 750 117 704 68 84 753 749 728 76 758 729 78 72 77 705 67 756 702 116 723 699 755 86 479 759 483 703 724 480
738 739 737 740 745 746 726 734 741 736 731 742 735 727 730 747 757 744 743 732 80 725 733 71 751 748 728 704 752 701 729 83 700 758 81 705 723 69 70 79 753 750 724 117 759 756 82 719 755 702 706 703 749 720 84 699 722 68 707 76 483 116 718 77
739 738 740 731 734 730 737 732 726 735 727 745 736 746 733 741 704 701 728 742 757 729 705 80 725 700 747 743 83 744 702 71 117 703 719 706 81 751 723 748 724 699 752 758 82 707 720 79 84 759 693 70 69 708 718 698 118 116 696 722 755 716 753 756
740 739 726 738 727 730 741 745 731 757 737 734 725 728 742 746 743 732 729 735 736 704 705 723 744 701 724 733 758 747 719 752 751 80 759 706 720 700 71 748 722 703 755 83 702 707 756 718 721 753 117 81 775 760 69 750 716 699 708 70 761 79 82 693
741 743 757 726 742 745 740 738 752 725 758 727 746 751 744 737 739 723 759 755 756 753 730 728 747 748 736 731 734 724 722 750 761 735 762 729 760 754 71 732 484 483 80 719 69 720 775 704 705 749 721 494 733 480 701 70 706 763 479 774 79 495 81 776
742 743 745 741 744 751 752 746 757 738 726 737 753 748 740 756 747 758 750 739 755 736 725 727 483 69 759 71 723 484 749 734 754 735 480 80 731 762 730 479 70 761 728 67 494 722 724 732 79 760 482 338 68 733 485 81 495 481 729 493 83 763 704 478
743 741 742 752 757 751 758 745 756 744 726 755 753 746 725 759 738 740 723 727 737 762 754 748 750 761 484 739 747 483 722 494 760 736 728 724 730 480 749 734 69 731 763 495 71 735 479 775 485 496 482 80 774 493 729 764 70 720 721 732 719 481 67 772
744 751 742 748 746 745 750 747 743 753 752 741 737 69 749 738 736 71 756 483 757 479 480 726 70 740 484 67 739 758 80 755 338 735 68 754 79 734 727 725 482 481 336 81 759 478 731 762 485 72 65 723 730 494 339 761 732 733 495 493 476 83 78 728
745 746 742 738 741 737 744 740 743 726 739 747 751 736 757 748 752 734 727 735 71 731 725 80 753 730 758 750 69 756 732 755 723 70 728 733 759 749 79 81 483 83 729 704 701 724 484 480 479 68 754 700 67 705 762 722 82 761 719 117 338 760 72 720
746 745 737 747 744 736 738 742 748 71 741 751 739 80 740 735 743 69 734 726 70 750 752 757 79 753 731 749 81 727 733 732 68 730 83 725 756 67 758 479 82 483 72 480 755 78 338 700 728 76 701 484 723 704 759 117 65 84 77 754 336 729 66 705
747 71 746 736 748 737 69 70 80 744 745 79 738 735 742 81 68 751 749 750 734 739 67 72 741 740 743 78 83 82 76 753 752 733 726 479 731 65 338 732 77 757 73 66 480 336 84 483 727 730 756 117 700 74 86 725 758 484 701 339 75 337 116 478
748 69 744 747 750 749 746 751 70 71 67 742 745 479 753 736 737 68 338 480 79 752 483 743 80 738 741 336 65 72 735 81 484 756 481 478 339 740 66 739 482 78 726 337 757 734 73 340 76 754 758 485 755 82 83 476 335 64 731 63 727 733 333 477
749 67 479 750 338 69 748 336 480 478 339 744 68 65 70 483 481 753 751 747 337 340 482 71 746 335 72 66 742 484 476 79 477 752 64 333 745 485 736 334 341 737 743 73 63 756 80 78 475 474 741 754 487 342 738 62 81 332 493 59 486 331 76 735
750 749 479 480 748 753 751 483 744 338 69 67 481 484 752 482 742 478 747 746 336 756 743 485 70 745 339 476 68 340 754 71 65 741 737 337 736 477 493 755 738 487 335 79 475 72 486 495 758 757 80 494 66 762 726 474 341 740 333 64 488 334 735 739
751 744 753 752 742 743 750 748 756 745 741 746 483 484 480 749 747 755 757 758 754 479 737 69 738 726 740 482 762 736 485 71 481 67 338 759 494 725 70 739 495 761 493 727 478 723 80 68 735 476 336 734 79 486 496 763 339 731 487 760 730 65 722 340
752 756 743 751 753 742 755 758 741 744 754 757 484 745 762 483 750 759 726 746 494 761 748 725 480 723 738 495 740 737 485 747 749 493 482 479 727 763 496 760 722 69 739 481 736 764 486 724 71 774 338 728 67 497 478 476 499 730 492 70 734 775 530 487
753 751 483 752 484 750 756 744 480 754 742 743 479 482 748 485 749 755 481 741 493 494 495 745 762 758 746 338 478 757 69 476 747 486 67 487 761 726 759 496 737 738 336 475 490 340 763 492 740 71 70 339 736 725 477 723 499 489 68 488 739 727 497 760
754 494 756 495 484 762 493 755 496 753 752 483 485 761 763 499 486 758 751 492 482 497 743 480 490 498 750 759 530 742 487 764 744 481 500 491 476 489 741 757 529 479 506 760 774 723 475 748 745 488 765 749 531 478 501 505 722 725 726 746 469 502 338 508
755 758 762 756 761 759 752 754 743 494 757 763 760 723 741 753 751 496 742 764 484 722 725 774 495 726 497 744 530 483 745 493 775 772 724 727 740 750 765 485 499 498 776 746 738 480 773 769 492 482 728 721 748 486 529 531 737 778 739 490 720 500 479 533
756 752 755 754 753 762 484 743 758 751 494 483 761 742 495 741 759 757 744 496 493 763 750 485 480 745 482 723 726 760 725 748 764 497 746 486 499 479 722 492 774 481 530 749 498 738 740 490 727 487 476 747 737 478 69 724 500 775 765 338 772 489 739 491
757 741 726 725 743 758 723 727 759 740 742 745 752 755 738 724 728 722 756 751 739 744 760 746 730 761 737 775 762 753 729 720 721 731 719 734 754 747 736 748 774 776 705 494 772 750 763 484 735 706 778 704 732 718 764 483 779 71 80 701 496 777 733 495
758 755 759 757 743 723 761 752 756 741 725 762 760 722 726 742 751 754 763 724 494 727 753 774 745 775 740 764 744 772 484 728 738 496 776 721 746 495 483 739 720 530 778 737 497 750 730 773 748 765 493 719 729 777 769 747 485 480 779 731 788 498 499 736
759 758 723 760 722 761 755 757 725 775 762 724 774 743 741 726 756 772 752 776 764 763 721 727 742 778 728 494 754 720 773 740 751 777 745 496 753 530 788 765 779 738 719 769 744 497 729 484 730 495 739 782 746 789 718 770 737 483 771 780 784 706 498 768
760 722 759 774 772 761 775 723 776 764 758 773 755 778 724 763 721 777 762 725 788 757 769 765 530 789 756 770 720 743 779 494 726 771 782 741 752 496 727 728 497 768 754 784 766 719 533 787 742 810 783 740 531 809 780 495 781 812 751 729 718 498 767 745
761 762 755 763 759 764 760 758 774 494 756 722 496 530 723 754 772 497 765 752 757 743 775 769 495 773 725 776 498 741 484 724 753 531 499 533 751 726 742 529 493 778 788 766 721 777 768 770 727 492 483 745 744 532 485 500 728 740 720 771 789 534 767 528
762 494 755 761 763 754 756 496 758 495 764 759 497 752 530 484 774 760 743 498 493 499 753 765 723 757 751 722 492 483 529 485 741 742 531 772 769 725 486 500 490 533 773 775 744 726 482 491 480 776 750 501 745 766 724 532 528 768 487 489 527 727 506 481
763 764 530 761 762 496 497 494 774 765 755 498 531 754 760 495 769 529 499 533 759 756 758 772 766 773 532 722 768 493 492 500 528 752 484 723 501 534 527 776 770 535 743 767 775 491 757 753 490 538 788 485 486 725 812 502 483 751 741 777 526 778 742 724
764 774 763 765 530 761 769 760 497 762 773 772 496 533 531 766 768 494 755 759 498 770 529 722 758 776 532 767 534 788 754 775 723 499 495 756 812 535 528 777 810 771 778 813 500 752 527 789 538 757 501 492 725 743 493 724 721 536 811 809 543 484 491 537
765 769 533 530 764 766 768 531 774 763 534 497 767 532 773 535 770 529 812 761 496 772 498 528 813 760 762 810 536 538 543 494 788 527 499 811 776 771 537 544 755 759 501 814 722 500 495 809 777 542 775 754 523 758 808 524 789 546 526 816 492 723 778 756
766 768 767 534 533 769 765 535 812 813 531 532 543 770 530 536 764 544 810 773 814 811 528 774 538 537 529 497 542 763 546 545 772 816 498 527 771 815 788 809 808 523 496 540 761 539 760 547 541 524 501 522 776 762 548 807 499 494 805 777 789 790 526 550
767 766 768 813 534 812 543 544 533 769 535 814 811 536 765 770 810 546 532 542 531 545 816 815 537 773 530 538 808 547 764 528 809 540 774 771 548 541 529 805 807 788 772 539 497 818 763 523 550 817 790 527 522 498 555 789 524 806 802 760 776 273 496 274
768 766 767 769 812 770 813 765 534 810 533 773 811 814 535 543 764 544 774 531 530 532 771 809 536 808 772 816 788 546 815 763 542 497 545 528 537 538 807 790 529 789 776 760 777 805 547 761 792 498 540 496 817 787 527 548 802 818 775 778 541 523 722 762
769 765 768 766 773 770 764 774 533 767 812 530 534 772 810 531 763 813 788 771 535 760 811 532 497 761 776 809 814 543 777 529 808 536 544 789 496 528 762 722 498 775 816 759 538 778 546 494 790 537 755 815 542 792 807 787 527 758 723 545 499 784 805 501
770 810 773 768 812 771 769 809 788 811 808 767 772 766 813 789 765 774 790 777 814 816 776 792 764 807 534 787 533 760 778 815 544 784 791 805 802 546 530 775 543 535 531 763 782 722 761 532 804 793 536 786 817 806 783 796 721 497 759 801 545 547 542 779
771 788 809 789 770 792 810 787 777 773 790 808 784 772 776 811 791 778 812 782 807 793 786 769 768 783 802 774 796 816 775 760 767 794 813 785 814 766 779 801 721 781 805 765 722 804 764 795 815 797 803 645 806 799 534 533 724 546 817 800 11 544 761 646
772 776 773 774 760 788 777 775 722 778 789 770 771 764 769 759 761 721 723 765 782 784 768 724 810 763 809 787 779 758 766 530 812 755 792 783 762 725 720 808 767 786 790 533 781 811 757 497 793 780 531 496 534 813 785 494 728 719 756 727 726 791 648 743
773 772 770 788 769 774 771 776 777 768 810 764 789 760 765 809 812 778 775 766 722 767 808 811 761 787 784 763 792 530 533 790 782 759 813 721 534 723 531 814 779 783 816 807 762 724 786 497 758 755 791 535 793 532 496 544 781 802 543 725 720 815 494 529
774 764 772 760 773 761 769 765 763 776 722 759 530 775 770 788 762 768 755 777 766 723 758 497 533 778 496 771 531 494 789 810 767 812 721 724 534 756 725 498 809 529 754 757 532 782 784 813 811 535 495 752 787 779 743 499 808 720 528 792 741 726 790 783
775 722 776 778 721 724 760 772 777 723 779 759 720 782 788 725 774 789 773 784 728 758 761 780 719 783 781 757 771 718 787 727 764 755 726 648 786 770 729 769 785 717 706 763 741 762 792 809 743 649 765 646 740 793 730 716 810 768 756 752 705 715 794 530
776 777 778 775 772 788 722 760 721 789 773 782 774 784 779 771 724 723 787 759 783 770 720 781 764 769 761 786 809 792 725 780 810 758 785 765 793 768 719 648 728 763 790 718 757 755 808 812 762 794 727 646 717 766 530 726 811 645 649 729 791 767 706 796
777 778 776 789 788 784 782 772 775 771 787 773 721 783 779 722 786 792 760 781 809 770 774 785 793 724 720 810 790 780 723 769 794 648 808 759 646 764 645 791 768 796 761 725 718 812 719 811 765 717 649 795 728 807 758 766 802 647 763 644 636 767 757 755
778 777 776 775 782 721 779 784 789 788 772 722 783 724 781 720 787 760 771 773 780 786 723 785 648 774 759 792 718 719 793 725 646 770 717 809 728 794 649 645 761 769 764 790 758 810 729 706 727 757 647 716 808 715 796 726 791 768 755 650 644 795 765 763
779 721 782 780 781 778 720 783 648 775 784 718 724 717 777 776 785 719 649 646 786 789 722 787 728 715 716 706 788 647 723 772 645 729 650 793 725 794 760 651 771 707 727 644 759 711 792 714 773 705 643 652 774 636 757 730 726 795 809 641 713 758 770 796
780 717 648 718 779 649 781 720 715 719 716 721 646 782 650 706 783 785 647 651 778 724 714 711 729 707 784 728 775 786 645 652 777 776 713 705 644 643 722 712 794 789 787 710 641 725 723 727 708 793 656 709 642 730 653 788 636 703 772 704 760 671 637 795
781 783 785 648 782 646 779 780 786 784 645 649 647 717 778 794 721 787 793 644 777 650 789 720 718 715 643 636 776 775 795 651 719 716 724 788 792 652 641 637 771 706 714 796 722 635 772 640 642 711 728 713 729 656 707 809 797 790 723 773 791 760 638 712
782 783 784 779 778 781 777 786 789 785 787 721 776 648 780 775 788 646 793 720 794 645 771 792 772 724 649 717 722 718 647 773 719 644 809 795 760 636 796 650 790 723 715 770 643 716 728 791 774 706 725 759 651 810 808 729 797 635 652 637 641 714 769 727
783 785 781 784 782 786 787 779 793 646 794 645 648 789 778 777 780 792 721 644 647 776 788 649 795 636 771 775 717 796 720 643 650 718 809 772 790 724 635 791 715 637 797 722 719 641 773 651 652 716 640 808 770 760 633 634 799 706 801 810 723 642 714 638
784 783 782 787 786 789 777 785 781 793 778 792 788 779 794 771 776 645 721 646 648 775 809 796 780 790 772 795 773 791 644 636 720 647 770 649 722 808 724 797 717 810 760 718 643 635 802 801 650 774 807 719 799 723 637 715 633 811 769 634 641 759 812 716
785 783 786 645 781 646 794 784 648 782 793 644 647 636 787 795 779 643 780 649 789 778 650 777 792 637 635 717 796 641 721 640 652 797 788 715 776 718 771 720 651 634 638 775 791 642 633 790 809 629 716 719 799 656 724 714 772 657 801 713 639 798 632 722
786 783 793 785 784 794 787 645 782 781 789 792 795 646 636 796 644 777 648 779 778 771 788 647 797 791 790 635 780 643 809 776 721 649 637 633 799 775 801 634 717 650 808 772 641 802 720 773 798 640 638 770 810 629 718 807 652 632 715 800 724 722 803 651
787 784 789 792 786 793 783 771 782 777 788 794 790 809 785 796 791 778 781 645 776 795 808 779 773 797 810 770 772 646 636 802 775 801 807 721 648 644 799 780 635 811 647 633 803 804 722 800 812 760 816 798 720 649 774 643 769 634 724 768 637 717 805 806
788 771 789 777 773 776 772 770 778 787 809 784 792 782 810 775 774 790 769 808 760 783 786 722 721 768 779 793 812 811 764 791 781 765 785 807 766 724 796 794 767 723 759 761 802 816 720 813 780 645 763 814 648 533 795 646 530 801 534 805 725 758 804 797
789 788 777 787 784 771 792 782 778 776 786 783 809 772 773 793 790 770 775 781 779 785 810 808 721 794 791 796 722 645 760 774 807 769 795 811 648 646 802 780 812 768 724 720 797 801 636 816 723 764 644 799 759 765 804 649 647 767 766 717 803 718 813 805
790 791 809 808 792 807 802 771 810 796 787 801 804 811 789 816 803 793 805 770 788 806 799 797 784 800 786 11 812 777 794 773 814 795 815 817 783 768 782 813 12 9 798 776 772 785 778 10 633 14 769 767 645 16 546 636 781 13 1 818 766 22 635 544
791 790 802 801 796 792 807 803 808 809 804 799 797 800 793 787 771 11 806 795 805 810 789 816 798 786 794 12 811 14 633 784 16 788 9 770 817 783 13 777 10 636 645 188 785 635 815 812 634 632 782 814 22 17 773 15 778 781 644 813 187 776 1 21
792 787 790 791 809 793 771 789 796 784 808 786 788 802 807 794 801 777 810 783 797 795 782 770 799 785 804 803 811 645 778 773 776 800 781 816 636 772 805 633 812 798 806 11 779 635 644 646 775 768 14 634 814 12 721 769 648 815 16 817 813 632 774 188
793 786 794 787 795 796 792 784 785 645 783 636 797 789 791 782 790 781 644 635 646 799 771 801 633 809 777 788 634 798 802 648 778 637 643 808 779 647 800 807 803 632 776 629 780 14 188 810 638 804 649 721 640 770 773 641 775 772 650 631 630 16 717 11
794 645 793 795 786 636 785 644 783 796 635 787 784 646 797 781 792 637 643 782 634 633 647 648 789 791 799 629 638 798 640 790 801 632 779 641 777 771 649 778 780 809 788 650 188 800 630 802 631 639 14 652 717 776 803 808 721 642 628 623 807 651 657 775
795 794 636 635 793 797 796 645 633 634 644 786 785 799 798 637 632 629 787 792 783 791 643 638 801 188 646 784 631 630 14 781 800 640 647 790 782 789 641 803 639 628 802 648 187 16 189 809 190 771 777 12 623 808 804 15 807 779 788 649 650 778 186 652
796 797 791 799 793 801 795 792 794 790 633 798 787 800 802 786 803 636 635 14 645 634 809 784 807 804 808 632 188 785 789 783 771 16 12 11 644 629 782 788 806 187 781 631 777 637 810 646 805 15 17 13 630 9 816 811 643 638 770 189 778 184 647 22
797 799 796 633 798 795 801 800 14 634 632 791 188 793 635 794 636 803 16 792 802 790 187 629 631 786 12 645 787 15 804 644 630 189 11 785 17 637 807 184 784 638 809 783 13 808 186 789 190 18 771 806 643 9 21 628 646 781 22 782 185 640 192 191
798 633 188 14 799 797 632 800 187 16 634 801 15 631 796 795 189 635 12 184 803 17 186 629 630 791 18 636 190 13 185 793 794 802 21 191 11 192 804 183 792 638 790 645 637 628 644 22 9 20 786 193 182 19 180 181 807 787 174 806 785 639 173 23
799 797 800 801 798 14 796 633 803 16 791 188 12 795 632 802 634 804 11 15 187 17 793 790 792 635 13 794 807 631 636 184 9 21 189 806 629 18 22 787 186 786 808 630 809 645 805 10 185 644 20 183 190 785 784 771 789 637 8 191 816 19 638 783
800 803 801 799 12 16 14 798 11 797 804 13 802 17 791 796 188 15 9 633 22 21 806 187 807 632 790 18 184 10 795 792 634 8 20 805 793 808 23 186 631 189 6 635 19 809 183 817 794 185 816 2 787 27 636 629 630 786 1 811 771 24 191 810
801 803 800 799 791 802 796 797 804 11 12 14 790 798 16 807 792 806 633 9 13 808 793 795 188 17 809 805 22 15 632 10 787 794 21 816 634 187 817 635 786 771 811 810 636 184 789 18 8 784 631 6 645 2 815 20 189 23 1 186 629 785 788 783
802 804 807 791 803 801 790 808 806 11 805 800 809 816 792 796 799 9 12 811 817 10 797 810 771 815 16 13 14 22 787 793 798 814 1 812 770 2 789 795 633 818 17 6 788 786 794 813 8 546 21 784 188 0 15 768 773 777 632 767 547 544 23 3
803 801 800 11 804 802 12 799 791 9 806 16 13 807 14 22 796 797 790 10 805 798 17 808 21 817 792 15 816 8 633 6 188 809 2 23 1 793 795 187 20 811 18 632 815 184 810 787 771 634 7 794 818 19 814 27 635 5 786 0 186 40 789 631
804 802 11 806 803 807 805 801 9 791 10 800 817 12 790 816 808 22 13 799 1 2 815 809 16 811 796 6 792 14 797 8 810 818 814 17 21 798 0 771 546 812 7 23 3 5 793 787 15 633 813 770 188 547 20 795 274 789 40 544 18 788 187 794
805 817 806 816 807 815 804 802 811 808 1 814 10 11 818 9 546 803 2 790 810 0 791 809 812 813 547 801 544 3 274 22 6 800 12 770 792 5 13 767 771 548 8 768 7 273 545 799 796 276 275 543 16 4 766 797 787 534 788 14 21 789 550 542
806 805 804 11 817 10 9 807 802 816 803 1 2 815 22 818 808 801 6 12 791 811 800 0 13 790 814 8 3 5 546 809 7 810 799 16 547 274 812 21 792 813 796 23 17 14 544 4 276 797 40 771 44 770 275 273 798 41 548 20 277 767 545 15
807 802 808 805 804 816 790 806 791 811 809 803 810 11 817 801 815 792 814 771 812 10 9 800 796 770 799 813 1 546 818 12 787 789 2 797 788 22 768 793 13 767 544 0 547 16 773 6 14 784 798 786 777 769 3 795 8 766 274 794 17 633 543 5
808 809 807 790 810 811 816 802 791 771 792 805 770 812 804 814 806 815 788 801 789 787 813 817 803 768 796 773 11 767 546 793 769 777 784 800 799 544 766 818 10 9 772 797 786 1 776 547 12 534 794 782 783 778 765 543 795 774 2 0 22 798 13 533
809 808 790 771 810 792 770 807 811 791 788 789 787 802 816 812 773 777 784 796 805 768 804 793 801 814 772 786 813 769 776 806 815 803 767 778 782 783 817 766 11 799 797 794 774 800 546 795 785 765 775 544 534 781 760 764 9 645 10 779 818 12 721 533
810 770 811 808 809 812 771 768 816 790 807 813 814 773 767 788 769 792 766 815 805 789 802 791 546 772 544 787 777 534 765 804 817 806 774 776 533 543 784 764 801 796 818 803 547 778 793 535 11 545 786 536 760 782 775 530 1 531 542 783 532 10 800 799
811 816 810 812 814 808 813 815 807 770 809 805 768 767 546 790 544 817 771 802 806 766 804 769 773 818 534 791 547 543 792 788 545 1 789 765 11 533 803 535 787 801 536 10 548 542 0 772 777 274 9 774 796 2 764 776 273 532 784 800 550 793 531 541
812 813 811 768 767 810 814 770 766 816 769 544 534 808 546 815 809 543 773 765 771 533 807 805 535 790 536 788 545 547 817 542 774 532 772 764 818 531 802 792 789 806 530 548 791 804 537 777 776 538 787 540 541 1 528 550 763 0 274 760 497 529 11 273
813 767 812 814 544 546 811 768 543 534 766 815 816 810 545 770 536 547 535 542 769 533 808 805 548 818 765 817 807 809 537 532 540 541 773 550 531 771 538 790 806 274 273 1 0 539 802 528 788 530 549 764 804 774 555 551 772 523 792 791 529 789 522 10
814 815 546 813 811 816 544 812 767 547 805 810 817 818 543 545 768 808 807 534 548 770 766 806 542 809 1 536 0 274 535 769 802 804 790 273 550 541 533 771 540 10 549 773 765 537 2 3 11 791 275 532 792 788 9 551 803 531 555 539 276 538 801 789
815 814 816 546 817 805 818 547 811 813 544 1 806 812 807 0 274 808 548 545 810 767 804 543 10 273 2 802 3 768 809 11 542 550 770 790 275 534 9 549 766 541 536 276 803 791 5 771 6 540 535 769 801 551 4 792 22 7 533 271 272 537 773 277
816 811 805 815 814 807 808 817 810 806 546 812 813 802 804 818 809 790 544 1 547 770 767 11 791 10 768 0 771 803 9 2 792 543 545 801 274 766 548 534 3 769 773 788 273 800 542 796 789 22 6 787 536 12 550 275 5 535 799 533 765 13 276 541
817 805 1 806 818 815 816 10 0 2 804 807 814 546 11 3 9 547 274 811 802 808 6 5 803 544 813 273 22 276 548 275 7 812 810 790 4 8 545 791 809 801 13 12 277 800 767 44 549 543 550 770 278 768 41 272 542 792 40 23 771 541 799 271
818 0 1 817 274 547 815 546 3 273 805 548 275 814 2 816 276 806 10 544 545 5 549 550 813 811 4 807 277 804 9 272 6 271 11 278 7 543 812 541 542 808 802 551 44 767 270 810 22 280 540 288 8 803 536 287 534 555 790 41 768 809 279 286
